&CONTROL
   calculation      = 'scf'
   tstress          = .true.
   tprnfor          = .true.
   outdir           = './34'
   disk_io          = 'none'
   pseudo_dir       = '/share/pfaendtnergroup/rverma7/QE_PP'
/
&SYSTEM
   ecutwfc          = 30
   input_dft        = 'PBE'
   ntyp             = 2
   nat              = 66
   ibrav            = 0
/
&ELECTRONS
   electron_maxstep = 1000
   mixing_beta      = 0.5
/
&IONS
/
&CELL
/

ATOMIC_SPECIES
H 1.008 H.pbe-rrkjus_psl.1.0.0.UPF
O 15.999 O.pbe-n-kjpaw_psl.0.1.UPF

K_POINTS gamma

CELL_PARAMETERS angstrom
40.06500000000000 0.00000000000000 0.00000000000000
0.00000000000000 40.06500000000000 0.00000000000000
0.00000000000000 0.00000000000000 40.06500000000000

ATOMIC_POSITIONS angstrom
H 9.5210000000 6.6770000000 15.0770000000 
H 10.0280000000 7.3820000000 16.4700000000 
H 11.3420000000 6.2750000000 12.5670000000 
H 12.3000000000 5.4420000000 13.6050000000 
H 10.2860000000 16.2690000000 16.1350000000 
H 11.1490000000 14.9270000000 15.6690000000 
H 15.5790000000 10.0750000000 12.4080000000 
H 14.2210000000 9.6810000000 13.0720000000 
H 12.6300000000 13.8690000000 14.7180000000 
H 12.7470000000 14.1680000000 13.1250000000 
H 17.3310000000 6.6520000000 16.4180000000 
H 16.6410000000 8.1050000000 16.9210000000 
H 9.5850000000 8.6620000000 13.9750000000 
H 9.9950000000 10.0880000000 13.4120000000 
H 11.1660000000 8.0350000000 18.2700000000 
H 11.9170000000 7.0990000000 17.3200000000 
H 14.0980000000 6.9670000000 18.9240000000 
H 15.4020000000 7.4550000000 18.3680000000 
H 14.2490000000 11.6950000000 16.5000000000 
H 12.8840000000 10.8150000000 16.6280000000 
H 10.7880000000 7.7320000000 11.0960000000 
H 10.6160000000 8.4600000000 12.5330000000 
H 16.4230000000 10.5870000000 16.6410000000 
H 15.5010000000 9.7570000000 17.6750000000 
H 10.6740000000 13.3190000000 16.6100000000 
H 12.2170000000 13.0850000000 17.3370000000 
H 13.3080000000 8.0350000000 16.3640000000 
H 14.2410000000 6.6800000000 16.4520000000 
H 12.8640000000 8.7080000000 19.6460000000 
H 12.9600000000 10.2240000000 18.7600000000 
H 9.8520000000 5.1410000000 13.4500000000 
H 8.2460000000 5.0200000000 13.1370000000 
H 10.6750000000 10.3760000000 18.7950000000 
H 9.1450000000 10.1540000000 19.0830000000 
H 15.3510000000 11.1890000000 14.5360000000 
H 14.9520000000 12.7190000000 14.6030000000 
H 6.4170000000 13.0900000000 15.6650000000 
H 6.4980000000 11.9620000000 14.5070000000 
H 11.8030000000 10.1930000000 14.9040000000 
H 11.1470000000 9.0890000000 15.6490000000 
H 8.4860000000 11.9410000000 16.1320000000 
H 9.6650000000 11.3240000000 17.1340000000 
H 11.5410000000 12.2420000000 13.8560000000 
H 10.4030000000 11.8150000000 14.9660000000 
O 9.6680000000 7.5900000000 15.5330000000 
O 11.4350000000 5.3770000000 13.0570000000 
O 10.4780000000 15.6470000000 15.3160000000 
O 15.0520000000 10.1290000000 13.2550000000 
O 12.6460000000 13.4540000000 13.8060000000 
O 16.5040000000 7.0270000000 16.8860000000 
O 9.4870000000 9.2340000000 13.1610000000 
O 10.9670000000 7.2360000000 17.7130000000 
O 14.7420000000 7.6790000000 19.0630000000 
O 13.4830000000 11.4200000000 17.1780000000 
O 11.2490000000 7.8270000000 11.9710000000 
O 16.3740000000 9.7040000000 17.1690000000 
O 11.6250000000 13.5850000000 16.6630000000 
O 13.3560000000 7.0960000000 16.7390000000 
O 12.3430000000 9.5730000000 19.3290000000 
O 8.9330000000 5.3450000000 13.7600000000 
O 9.7500000000 10.4170000000 18.3350000000 
O 15.3060000000 12.0130000000 15.1890000000 
O 6.8950000000 12.2430000000 15.4110000000 
O 12.0760000000 9.5260000000 15.6030000000 
O 9.5260000000 12.0500000000 16.3230000000 
O 10.9340000000 11.4350000000 14.1750000000 

