&CONTROL
   calculation      = 'scf'
   tstress          = .true.
   tprnfor          = .true.
   outdir           = './249'
   disk_io          = 'none'
   pseudo_dir       = '/share/pfaendtnergroup/rverma7/QE_PP'
/
&SYSTEM
   ecutwfc          = 30
   input_dft        = 'PBE'
   ntyp             = 2
   nat              = 66
   ibrav            = 0
/
&ELECTRONS
   electron_maxstep = 1000
   mixing_beta      = 0.5
/
&IONS
/
&CELL
/

ATOMIC_SPECIES
H 1.008 H.pbe-rrkjus_psl.1.0.0.UPF
O 15.999 O.pbe-n-kjpaw_psl.0.1.UPF

K_POINTS gamma

CELL_PARAMETERS angstrom
40.06500000000000 0.00000000000000 0.00000000000000
0.00000000000000 40.06500000000000 0.00000000000000
0.00000000000000 0.00000000000000 40.06500000000000

ATOMIC_POSITIONS angstrom
H 11.4770000000 12.6250000000 14.6440000000 
H 12.1430000000 12.0260000000 15.9740000000 
H 17.9570000000 9.2630000000 15.4310000000 
H 16.3140000000 9.1350000000 15.7780000000 
H 13.1380000000 14.6930000000 17.8450000000 
H 13.5640000000 13.1660000000 17.4690000000 
H 7.6920000000 11.2270000000 16.6840000000 
H 7.9390000000 10.3500000000 15.4730000000 
H 9.5790000000 12.9720000000 16.4790000000 
H 9.5520000000 11.6880000000 17.5340000000 
H 9.8920000000 9.3720000000 15.3990000000 
H 10.2200000000 11.0830000000 15.4280000000 
H 8.7630000000 7.3520000000 16.2190000000 
H 10.3090000000 6.8850000000 16.5690000000 
H 10.4170000000 11.3950000000 19.2730000000 
H 10.2800000000 9.9210000000 18.6130000000 
H 11.6420000000 7.3950000000 10.7000000000 
H 10.8110000000 7.1640000000 12.1300000000 
H 11.3860000000 12.1190000000 12.6550000000 
H 12.1250000000 13.3630000000 12.2800000000 
H 14.2260000000 8.1790000000 16.5740000000 
H 14.9030000000 6.9280000000 17.2850000000 
H 12.5330000000 7.9250000000 14.6330000000 
H 12.6620000000 8.0260000000 13.0100000000 
H 11.8360000000 5.5500000000 18.5940000000 
H 12.3170000000 6.7230000000 17.5190000000 
H 6.1190000000 8.0490000000 17.3080000000 
H 7.2390000000 8.8840000000 16.7930000000 
H 17.0930000000 7.0990000000 16.5400000000 
H 17.4180000000 6.2670000000 17.8300000000 
H 16.4500000000 13.9230000000 15.6560000000 
H 14.9310000000 14.4860000000 15.9980000000 
H 8.9740000000 8.0150000000 18.4050000000 
H 10.5060000000 7.5100000000 18.6460000000 
H 11.3190000000 10.2310000000 12.9980000000 
H 11.4620000000 9.5420000000 11.6710000000 
H 9.1650000000 5.7570000000 13.1930000000 
H 9.8890000000 6.8090000000 14.3250000000 
H 14.6950000000 12.8970000000 14.6790000000 
H 13.5100000000 12.3950000000 13.7020000000 
H 13.4850000000 10.4280000000 17.1000000000 
H 12.1300000000 11.0430000000 17.7470000000 
H 14.1920000000 9.0780000000 14.8690000000 
H 14.5530000000 10.5830000000 15.2360000000 
O 11.2220000000 12.3740000000 15.6080000000 
O 17.2380000000 8.6770000000 15.8370000000 
O 13.8080000000 14.1380000000 17.2840000000 
O 7.2570000000 10.4400000000 16.1780000000 
O 8.9160000000 12.3840000000 17.0120000000 
O 9.7030000000 10.2780000000 14.9850000000 
O 9.6940000000 7.2650000000 15.8160000000 
O 10.5640000000 10.9100000000 18.4120000000 
O 11.4930000000 7.8080000000 11.6040000000 
O 11.9800000000 12.8090000000 13.1220000000 
O 13.9540000000 7.3200000000 17.0350000000 
O 12.9950000000 8.4440000000 13.8670000000 
O 11.5150000000 6.2450000000 17.9020000000 
O 7.0950000000 7.9770000000 17.1760000000 
O 16.9050000000 6.1880000000 17.0210000000 
O 15.5930000000 14.2390000000 15.2540000000 
O 9.8550000000 8.3130000000 18.6000000000 
O 11.1770000000 10.4660000000 12.0280000000 
O 9.9970000000 6.4450000000 13.3230000000 
O 14.2360000000 12.0520000000 14.3510000000 
O 13.0620000000 11.2880000000 17.3780000000 
O 14.6250000000 9.5920000000 15.6100000000 

