&CONTROL
   calculation      = 'scf'
   tstress          = .true.
   tprnfor          = .true.
   outdir           = './370'
   disk_io          = 'none'
   pseudo_dir       = '/share/pfaendtnergroup/rverma7/QE_PP'
/
&SYSTEM
   ecutwfc          = 30
   input_dft        = 'PBE'
   ntyp             = 2
   nat              = 66
   ibrav            = 0
/
&ELECTRONS
   electron_maxstep = 1000
   mixing_beta      = 0.5
/
&IONS
/
&CELL
/

ATOMIC_SPECIES
H 1.008 H.pbe-rrkjus_psl.1.0.0.UPF
O 15.999 O.pbe-n-kjpaw_psl.0.1.UPF

K_POINTS gamma

CELL_PARAMETERS angstrom
40.06500000000000 0.00000000000000 0.00000000000000
0.00000000000000 40.06500000000000 0.00000000000000
0.00000000000000 0.00000000000000 40.06500000000000

ATOMIC_POSITIONS angstrom
H 10.1930000000 14.7760000000 13.5930000000 
H 9.0370000000 14.3520000000 12.4630000000 
H 10.7650000000 9.7850000000 16.8360000000 
H 9.8070000000 10.9580000000 16.2850000000 
H 13.8040000000 7.5150000000 14.2580000000 
H 13.1980000000 9.0700000000 13.9210000000 
H 11.2570000000 11.8680000000 15.8890000000 
H 11.6890000000 12.2510000000 17.3950000000 
H 8.5630000000 8.9890000000 17.1230000000 
H 7.2760000000 8.6870000000 16.1020000000 
H 9.6200000000 8.8500000000 13.2140000000 
H 8.7160000000 9.7120000000 12.1890000000 
H 10.2620000000 6.8640000000 14.5620000000 
H 11.3850000000 7.6150000000 13.7340000000 
H 16.3520000000 9.4640000000 15.4600000000 
H 15.4690000000 9.8690000000 14.1140000000 
H 12.4930000000 8.0120000000 16.6600000000 
H 12.1170000000 8.7440000000 15.3570000000 
H 12.0510000000 11.1500000000 18.9020000000 
H 10.3820000000 11.1620000000 18.5090000000 
H 9.6830000000 12.7180000000 14.3280000000 
H 9.4370000000 11.0500000000 14.2860000000 
H 11.3590000000 15.6080000000 16.9300000000 
H 11.0470000000 14.2840000000 16.1230000000 
H 13.3000000000 12.9190000000 15.7560000000 
H 14.5690000000 13.6970000000 15.2060000000 
H 15.7200000000 6.2500000000 15.1990000000 
H 15.4310000000 7.7700000000 14.8190000000 
H 13.0360000000 10.0370000000 17.3410000000 
H 13.8100000000 9.5450000000 18.5930000000 
H 11.0030000000 11.1110000000 12.6030000000 
H 11.5880000000 12.5720000000 12.2420000000 
H 7.8600000000 5.2000000000 17.3220000000 
H 8.7970000000 6.5630000000 17.1760000000 
H 14.2620000000 11.5410000000 14.3410000000 
H 13.3710000000 11.0530000000 13.1610000000 
H 10.6970000000 4.2360000000 15.3750000000 
H 10.3160000000 5.2850000000 16.4010000000 
H 13.7800000000 6.3590000000 16.4070000000 
H 12.2460000000 5.8110000000 16.7890000000 
H 15.1470000000 11.6580000000 16.2360000000 
H 15.0640000000 10.5050000000 17.3330000000 
H 13.9510000000 7.1760000000 18.9240000000 
H 13.7270000000 7.9390000000 20.4000000000 
O 9.7740000000 14.0170000000 13.1020000000 
O 9.8780000000 10.1970000000 17.0090000000 
O 12.9240000000 8.0570000000 13.9650000000 
O 11.8080000000 12.5310000000 16.4100000000 
O 7.9240000000 8.2800000000 16.7480000000 
O 9.3090000000 9.8230000000 12.9630000000 
O 10.3210000000 7.5080000000 13.7450000000 
O 16.0710000000 9.1000000000 14.4970000000 
O 12.1080000000 8.8950000000 16.4010000000 
O 11.1930000000 11.7140000000 18.8830000000 
O 9.6070000000 11.8620000000 14.9080000000 
O 11.1070000000 15.2440000000 16.0760000000 
O 14.3150000000 12.7690000000 15.4040000000 
O 14.9490000000 6.9060000000 15.1240000000 
O 13.5090000000 10.3700000000 18.1290000000 
O 11.8400000000 11.6910000000 12.6600000000 
O 8.7380000000 5.5530000000 17.0220000000 
O 14.1890000000 10.7690000000 13.6340000000 
O 11.0730000000 5.0620000000 15.6800000000 
O 13.1120000000 6.3000000000 17.1740000000 
O 15.7010000000 10.9020000000 16.6290000000 
O 13.6890000000 8.0080000000 19.4060000000 

