&CONTROL
   calculation      = 'scf'
   tstress          = .true.
   tprnfor          = .true.
   outdir           = './44'
   disk_io          = 'none'
   pseudo_dir       = '/share/pfaendtnergroup/rverma7/QE_PP'
/
&SYSTEM
   ecutwfc          = 30
   input_dft        = 'PBE'
   ntyp             = 2
   nat              = 66
   ibrav            = 0
/
&ELECTRONS
   electron_maxstep = 1000
   mixing_beta      = 0.5
/
&IONS
/
&CELL
/

ATOMIC_SPECIES
H 1.008 H.pbe-rrkjus_psl.1.0.0.UPF
O 15.999 O.pbe-n-kjpaw_psl.0.1.UPF

K_POINTS gamma

CELL_PARAMETERS angstrom
40.06500000000000 0.00000000000000 0.00000000000000
0.00000000000000 40.06500000000000 0.00000000000000
0.00000000000000 0.00000000000000 40.06500000000000

ATOMIC_POSITIONS angstrom
H 11.0040000000 8.6860000000 12.4530000000 
H 9.7390000000 8.2200000000 13.4240000000 
H 12.2570000000 12.0860000000 10.7270000000 
H 10.9420000000 12.2510000000 11.4520000000 
H 10.9630000000 9.5830000000 21.5500000000 
H 11.8170000000 10.3280000000 20.3650000000 
H 14.7840000000 5.5050000000 14.7240000000 
H 13.6870000000 6.6170000000 15.3250000000 
H 8.6070000000 7.3810000000 19.8760000000 
H 9.7890000000 8.4440000000 19.8380000000 
H 16.6790000000 11.6060000000 19.8350000000 
H 16.0120000000 10.4570000000 18.9800000000 
H 13.4360000000 9.6850000000 13.6150000000 
H 13.2660000000 9.7500000000 12.0260000000 
H 7.4730000000 9.0070000000 13.3270000000 
H 7.3530000000 7.4430000000 12.6440000000 
H 10.1410000000 10.7850000000 19.0070000000 
H 10.1540000000 10.0220000000 17.6640000000 
H 10.2360000000 7.8230000000 17.8760000000 
H 10.9740000000 8.3910000000 16.5600000000 
H 14.3950000000 12.9300000000 11.7220000000 
H 13.2910000000 13.5580000000 12.7070000000 
H 15.8430000000 8.4840000000 17.7440000000 
H 16.7790000000 9.6010000000 16.8640000000 
H 14.0280000000 10.8230000000 19.9760000000 
H 13.0410000000 11.3260000000 18.7010000000 
H 5.5540000000 10.6870000000 13.9950000000 
H 7.0990000000 10.4840000000 14.7190000000 
H 8.8840000000 11.2260000000 16.4600000000 
H 9.2340000000 9.8570000000 15.9260000000 
H 11.7870000000 10.0360000000 10.7560000000 
H 12.0530000000 8.5730000000 9.9520000000 
H 10.1510000000 11.3510000000 14.5180000000 
H 11.1900000000 10.4900000000 13.6080000000 
H 15.2590000000 6.2700000000 17.2550000000 
H 16.2600000000 6.1300000000 18.4640000000 
H 13.6620000000 11.7480000000 13.8230000000 
H 12.3190000000 12.2990000000 14.4370000000 
H 13.0060000000 8.7690000000 15.7120000000 
H 12.1860000000 8.3810000000 14.2880000000 
H 13.0220000000 12.0660000000 16.3840000000 
H 11.6010000000 12.1870000000 17.2110000000 
H 13.2310000000 9.2610000000 18.1620000000 
H 12.6650000000 10.2290000000 17.2530000000 
O 10.6740000000 8.6770000000 13.4240000000 
O 11.3660000000 11.5830000000 10.8160000000 
O 10.8460000000 9.8350000000 20.5570000000 
O 14.3660000000 5.8640000000 15.5950000000 
O 9.4900000000 7.5330000000 19.4700000000 
O 15.7770000000 11.1850000000 19.6790000000 
O 13.7060000000 10.2450000000 12.8190000000 
O 8.0130000000 8.1430000000 12.9580000000 
O 9.9270000000 10.8670000000 18.0470000000 
O 10.0630000000 8.3280000000 17.0080000000 
O 13.4930000000 13.2770000000 11.6830000000 
O 16.3560000000 9.4560000000 17.7700000000 
O 13.0260000000 10.8380000000 19.6010000000 
O 6.4490000000 10.1430000000 13.9640000000 
O 8.8690000000 10.7440000000 15.5570000000 
O 11.9340000000 9.0190000000 10.8570000000 
O 11.0300000000 11.4530000000 13.8710000000 
O 15.7250000000 6.8300000000 17.9820000000 
O 13.3650000000 12.3650000000 14.5620000000 
O 13.0940000000 8.3650000000 14.7710000000 
O 12.4860000000 11.7470000000 17.2040000000 
O 12.8330000000 9.2400000000 17.2580000000 

