&CONTROL
   calculation      = 'scf'
   tstress          = .true.
   tprnfor          = .true.
   outdir           = './191'
   disk_io          = 'none'
   pseudo_dir       = '/share/pfaendtnergroup/rverma7/QE_PP'
/
&SYSTEM
   ecutwfc          = 30
   input_dft        = 'PBE'
   ntyp             = 2
   nat              = 66
   ibrav            = 0
/
&ELECTRONS
   electron_maxstep = 1000
   mixing_beta      = 0.5
/
&IONS
/
&CELL
/

ATOMIC_SPECIES
H 1.008 H.pbe-rrkjus_psl.1.0.0.UPF
O 15.999 O.pbe-n-kjpaw_psl.0.1.UPF

K_POINTS gamma

CELL_PARAMETERS angstrom
40.06500000000000 0.00000000000000 0.00000000000000
0.00000000000000 40.06500000000000 0.00000000000000
0.00000000000000 0.00000000000000 40.06500000000000

ATOMIC_POSITIONS angstrom
H 12.1250000000 10.7850000000 19.1450000000 
H 12.5930000000 11.4570000000 17.6490000000 
H 9.9610000000 12.6730000000 14.2010000000 
H 9.3850000000 12.5830000000 12.6640000000 
H 8.8120000000 9.3600000000 16.3090000000 
H 7.9340000000 10.3660000000 15.3410000000 
H 12.8920000000 8.3290000000 16.8650000000 
H 14.5480000000 7.9980000000 16.4950000000 
H 14.2890000000 14.1170000000 18.8770000000 
H 12.9730000000 13.2080000000 18.5530000000 
H 12.0700000000 15.0970000000 17.5920000000 
H 11.2250000000 16.3110000000 17.1590000000 
H 13.2300000000 6.2200000000 15.1730000000 
H 11.7280000000 6.8770000000 15.4620000000 
H 11.0680000000 8.6510000000 14.9650000000 
H 11.8990000000 9.7780000000 15.6010000000 
H 13.3990000000 6.4270000000 10.2100000000 
H 13.0520000000 5.4970000000 11.5930000000 
H 10.2830000000 9.9000000000 12.7800000000 
H 9.4320000000 9.3170000000 14.0060000000 
H 12.3410000000 5.0350000000 13.6660000000 
H 12.6560000000 3.4490000000 13.3280000000 
H 10.2470000000 8.9790000000 18.7170000000 
H 10.4410000000 9.1070000000 17.1240000000 
H 12.9970000000 10.8230000000 12.9500000000 
H 11.6690000000 11.7370000000 13.6210000000 
H 12.9510000000 7.7960000000 12.2330000000 
H 12.0230000000 8.9020000000 12.9240000000 
H 15.5940000000 7.7630000000 13.9960000000 
H 14.0700000000 8.4680000000 13.8480000000 
H 9.1200000000 11.3270000000 18.4390000000 
H 10.6640000000 12.0600000000 18.8820000000 
H 10.5400000000 14.0190000000 16.1530000000 
H 10.3320000000 12.7520000000 17.0360000000 
H 14.0570000000 7.8860000000 18.6640000000 
H 14.4210000000 6.7400000000 19.7680000000 
H 17.1200000000 6.9120000000 11.9250000000 
H 15.5580000000 7.2910000000 11.8330000000 
H 11.5400000000 9.0260000000 20.8160000000 
H 12.8760000000 8.6610000000 19.9390000000 
H 12.9920000000 11.3900000000 15.3160000000 
H 14.4110000000 11.1080000000 16.1200000000 
H 8.8350000000 12.4400000000 15.8310000000 
H 7.2930000000 12.3530000000 16.5000000000 
O 12.2430000000 11.6770000000 18.6100000000 
O 10.0570000000 12.2150000000 13.2990000000 
O 8.2170000000 9.3770000000 15.4540000000 
O 13.8480000000 8.0790000000 17.2450000000 
O 13.4110000000 14.1150000000 18.3160000000 
O 11.2260000000 15.3420000000 17.0150000000 
O 12.2340000000 6.1540000000 14.9150000000 
O 11.5070000000 8.8730000000 15.8580000000 
O 13.6270000000 6.3000000000 11.1970000000 
O 10.3220000000 9.2180000000 13.4300000000 
O 12.5310000000 4.3200000000 12.8760000000 
O 9.7520000000 9.2720000000 17.8640000000 
O 12.6650000000 11.4230000000 13.7130000000 
O 12.9480000000 8.7670000000 12.5270000000 
O 14.7610000000 8.0560000000 14.4990000000 
O 9.7150000000 12.1550000000 18.5350000000 
O 10.2230000000 13.0160000000 16.0360000000 
O 13.9940000000 7.6900000000 19.7380000000 
O 16.3120000000 7.1410000000 12.4770000000 
O 11.9620000000 9.2790000000 19.9610000000 
O 13.3940000000 11.1480000000 16.2140000000 
O 7.8790000000 11.9600000000 15.7700000000 

