&CONTROL
   calculation      = 'scf'
   tstress          = .true.
   tprnfor          = .true.
   outdir           = './125'
   disk_io          = 'none'
   pseudo_dir       = '/share/pfaendtnergroup/rverma7/QE_PP'
/
&SYSTEM
   ecutwfc          = 30
   input_dft        = 'PBE'
   ntyp             = 2
   nat              = 66
   ibrav            = 0
/
&ELECTRONS
   electron_maxstep = 1000
   mixing_beta      = 0.5
/
&IONS
/
&CELL
/

ATOMIC_SPECIES
H 1.008 H.pbe-rrkjus_psl.1.0.0.UPF
O 15.999 O.pbe-n-kjpaw_psl.0.1.UPF

K_POINTS gamma

CELL_PARAMETERS angstrom
40.06500000000000 0.00000000000000 0.00000000000000
0.00000000000000 40.06500000000000 0.00000000000000
0.00000000000000 0.00000000000000 40.06500000000000

ATOMIC_POSITIONS angstrom
H 9.6200000000 8.0720000000 19.1380000000 
H 8.6720000000 9.3220000000 18.5270000000 
H 12.1290000000 12.6950000000 14.1600000000 
H 12.5680000000 12.1620000000 12.6370000000 
H 12.3850000000 10.2870000000 17.7760000000 
H 13.4620000000 10.8850000000 18.7160000000 
H 14.4860000000 11.3200000000 11.9750000000 
H 14.2270000000 9.6770000000 11.9140000000 
H 10.2780000000 11.3350000000 20.6180000000 
H 11.4920000000 11.4220000000 19.5830000000 
H 15.8780000000 10.2290000000 15.9720000000 
H 15.6700000000 10.7150000000 17.4940000000 
H 13.4440000000 10.3150000000 15.9650000000 
H 11.8500000000 10.8160000000 15.8830000000 
H 10.4540000000 12.8080000000 15.5370000000 
H 9.9970000000 11.3030000000 15.2490000000 
H 14.1880000000 13.1680000000 18.3380000000 
H 14.5970000000 12.4820000000 16.9910000000 
H 12.3830000000 8.0840000000 12.1690000000 
H 13.2540000000 7.9650000000 10.7240000000 
H 15.7930000000 10.7940000000 13.4670000000 
H 17.2670000000 10.4570000000 14.1780000000 
H 9.1500000000 9.9500000000 13.1840000000 
H 8.2920000000 10.9450000000 12.2840000000 
H 14.8330000000 8.3850000000 17.4650000000 
H 15.0720000000 7.0310000000 18.5300000000 
H 8.5650000000 9.7780000000 15.7260000000 
H 9.4240000000 8.7710000000 14.8970000000 
H 10.7030000000 6.6470000000 13.4210000000 
H 11.9040000000 7.3200000000 14.2700000000 
H 12.2340000000 9.9210000000 11.4520000000 
H 10.9600000000 11.1090000000 11.1940000000 
H 9.3220000000 11.3870000000 18.2340000000 
H 7.7270000000 11.3700000000 18.4800000000 
H 12.7460000000 7.2010000000 18.5640000000 
H 12.3130000000 8.6140000000 19.1090000000 
H 14.3790000000 13.1320000000 14.4590000000 
H 15.4500000000 12.0280000000 14.9020000000 
H 6.8320000000 6.0040000000 17.2860000000 
H 7.9130000000 7.1620000000 17.8540000000 
H 10.4010000000 7.1150000000 15.5490000000 
H 8.7240000000 6.9440000000 16.0290000000 
H 13.1760000000 7.1080000000 16.0730000000 
H 12.2240000000 8.5020000000 16.0330000000 
O 8.7030000000 8.2600000000 18.6910000000 
O 12.7420000000 12.8310000000 13.4230000000 
O 12.5630000000 10.4870000000 18.7560000000 
O 14.8730000000 10.4000000000 12.1830000000 
O 10.4970000000 11.7460000000 19.7200000000 
O 15.5750000000 9.8740000000 16.8970000000 
O 12.5100000000 10.1280000000 16.3360000000 
O 10.8460000000 11.8860000000 15.3990000000 
O 14.6230000000 12.4030000000 18.0030000000 
O 12.8730000000 8.6270000000 11.4820000000 
O 16.3930000000 10.9620000000 14.2980000000 
O 8.9850000000 10.2900000000 12.2460000000 
O 14.5270000000 7.4300000000 17.7170000000 
O 9.1240000000 9.7450000000 14.8830000000 
O 11.5290000000 7.2250000000 13.3500000000 
O 11.9990000000 10.9840000000 11.3700000000 
O 8.5200000000 10.7830000000 18.2360000000 
O 11.9870000000 7.6490000000 19.0540000000 
O 14.6550000000 12.6040000000 15.2940000000 
O 7.6300000000 6.5420000000 17.0500000000 
O 9.4120000000 7.2800000000 15.2550000000 
O 12.2600000000 7.4680000000 15.8670000000 

