&CONTROL
   calculation      = 'scf'
   tstress          = .true.
   tprnfor          = .true.
   outdir           = './296'
   disk_io          = 'none'
   pseudo_dir       = '/share/pfaendtnergroup/rverma7/QE_PP'
/
&SYSTEM
   ecutwfc          = 30
   input_dft        = 'PBE'
   ntyp             = 2
   nat              = 66
   ibrav            = 0
/
&ELECTRONS
   electron_maxstep = 1000
   mixing_beta      = 0.5
/
&IONS
/
&CELL
/

ATOMIC_SPECIES
H 1.008 H.pbe-rrkjus_psl.1.0.0.UPF
O 15.999 O.pbe-n-kjpaw_psl.0.1.UPF

K_POINTS gamma

CELL_PARAMETERS angstrom
40.06500000000000 0.00000000000000 0.00000000000000
0.00000000000000 40.06500000000000 0.00000000000000
0.00000000000000 0.00000000000000 40.06500000000000

ATOMIC_POSITIONS angstrom
H 11.5460000000 13.1030000000 16.7780000000 
H 10.9740000000 14.5790000000 16.3630000000 
H 13.7120000000 12.6510000000 15.2470000000 
H 13.9380000000 13.6780000000 14.0130000000 
H 11.7740000000 8.4250000000 17.0530000000 
H 10.9710000000 7.6250000000 18.1710000000 
H 14.8660000000 9.0970000000 13.0750000000 
H 14.4130000000 7.5420000000 12.9330000000 
H 10.4730000000 9.8540000000 18.2840000000 
H 10.2570000000 11.0980000000 19.2170000000 
H 6.2030000000 10.7690000000 14.6630000000 
H 7.2320000000 10.9790000000 15.9450000000 
H 9.0690000000 9.2600000000 14.4470000000 
H 9.4590000000 10.7480000000 15.1540000000 
H 10.2710000000 5.6420000000 16.4180000000 
H 9.9060000000 4.8470000000 17.8160000000 
H 7.2350000000 8.8650000000 14.6300000000 
H 7.0100000000 7.8880000000 13.4110000000 
H 13.2700000000 9.3060000000 18.2050000000 
H 13.9760000000 10.2590000000 17.0260000000 
H 11.5100000000 10.1170000000 20.5470000000 
H 12.7680000000 11.0460000000 20.7890000000 
H 11.2950000000 10.4290000000 13.3030000000 
H 12.7950000000 9.8550000000 12.7980000000 
H 12.8260000000 12.6190000000 12.6370000000 
H 13.5820000000 13.6310000000 11.5600000000 
H 8.9840000000 11.2490000000 17.1020000000 
H 9.2090000000 12.6050000000 16.3370000000 
H 14.8120000000 6.7740000000 16.7700000000 
H 14.9550000000 8.3560000000 17.1870000000 
H 12.5070000000 14.8910000000 15.1920000000 
H 12.9130000000 16.3950000000 15.5100000000 
H 8.8880000000 6.8330000000 14.7900000000 
H 10.3750000000 6.3470000000 14.5660000000 
H 15.4970000000 6.6050000000 15.0630000000 
H 16.3870000000 5.5420000000 14.2290000000 
H 12.9250000000 8.6540000000 14.9480000000 
H 11.2570000000 8.9630000000 15.1930000000 
H 14.4710000000 10.2470000000 15.0970000000 
H 13.1990000000 10.8730000000 14.3010000000 
H 12.7610000000 6.6780000000 15.9570000000 
H 12.3680000000 5.5050000000 17.0620000000 
H 16.3930000000 10.3160000000 15.1090000000 
H 16.1390000000 8.8360000000 15.0780000000 
O 10.7700000000 13.5620000000 16.3750000000 
O 13.8640000000 13.6590000000 15.0730000000 
O 11.5490000000 8.5500000000 18.0540000000 
O 14.0690000000 8.5190000000 12.8170000000 
O 9.7900000000 10.6270000000 18.4750000000 
O 6.7550000000 10.2200000000 15.3820000000 
O 9.7740000000 9.9280000000 14.6090000000 
O 10.6620000000 5.4230000000 17.3890000000 
O 7.6650000000 8.0760000000 14.2020000000 
O 14.1580000000 9.6430000000 17.8050000000 
O 11.8620000000 10.9930000000 20.3340000000 
O 12.1850000000 10.6720000000 13.0380000000 
O 13.6970000000 13.1830000000 12.4470000000 
O 8.6650000000 11.7930000000 16.3240000000 
O 15.3730000000 7.6350000000 16.5500000000 
O 12.0800000000 15.7770000000 15.5010000000 
O 9.6150000000 6.2090000000 15.1880000000 
O 15.7570000000 6.3230000000 14.1280000000 
O 12.0680000000 8.2960000000 15.4130000000 
O 13.6620000000 10.8380000000 15.2500000000 
O 13.1350000000 6.0310000000 16.6280000000 
O 15.8800000000 9.6870000000 14.5810000000 

