&CONTROL
   calculation      = 'scf'
   tstress          = .true.
   tprnfor          = .true.
   outdir           = './380'
   disk_io          = 'none'
   pseudo_dir       = '/share/pfaendtnergroup/rverma7/QE_PP'
/
&SYSTEM
   ecutwfc          = 30
   input_dft        = 'PBE'
   ntyp             = 2
   nat              = 66
   ibrav            = 0
/
&ELECTRONS
   electron_maxstep = 1000
   mixing_beta      = 0.5
/
&IONS
/
&CELL
/

ATOMIC_SPECIES
H 1.008 H.pbe-rrkjus_psl.1.0.0.UPF
O 15.999 O.pbe-n-kjpaw_psl.0.1.UPF

K_POINTS gamma

CELL_PARAMETERS angstrom
40.06500000000000 0.00000000000000 0.00000000000000
0.00000000000000 40.06500000000000 0.00000000000000
0.00000000000000 0.00000000000000 40.06500000000000

ATOMIC_POSITIONS angstrom
H 13.0130000000 14.2640000000 17.3040000000 
H 13.7480000000 15.6780000000 16.8930000000 
H 9.5390000000 10.1790000000 15.5580000000 
H 8.3040000000 11.1450000000 15.2060000000 
H 13.9220000000 7.8570000000 15.1730000000 
H 14.5320000000 9.1640000000 15.7470000000 
H 12.1930000000 12.0320000000 15.5210000000 
H 10.7240000000 11.7320000000 15.8900000000 
H 10.1690000000 11.8260000000 13.0250000000 
H 11.5090000000 12.7720000000 13.0340000000 
H 15.3000000000 11.5690000000 13.6760000000 
H 16.4910000000 12.7380000000 13.3700000000 
H 14.2130000000 10.0860000000 12.0390000000 
H 14.3950000000 9.5260000000 13.4840000000 
H 12.7820000000 6.7860000000 17.3880000000 
H 14.1920000000 6.2770000000 17.1290000000 
H 9.3860000000 7.8340000000 15.6720000000 
H 9.5700000000 8.1240000000 17.2890000000 
H 7.8120000000 9.4600000000 16.8150000000 
H 6.4300000000 10.0110000000 17.5350000000 
H 13.1390000000 13.7710000000 15.0860000000 
H 13.7390000000 13.1150000000 13.6980000000 
H 11.2910000000 13.4880000000 18.9010000000 
H 11.6460000000 13.0040000000 17.3580000000 
H 13.3760000000 9.8790000000 17.7220000000 
H 11.9240000000 10.4020000000 17.2990000000 
H 12.3350000000 4.3860000000 14.7010000000 
H 12.0780000000 5.1870000000 16.0210000000 
H 8.7220000000 7.4360000000 19.7270000000 
H 9.0340000000 6.3630000000 18.4990000000 
H 15.6730000000 12.7750000000 15.3560000000 
H 15.0880000000 13.4960000000 16.6070000000 
H 12.0350000000 11.1100000000 11.6120000000 
H 12.8190000000 10.5000000000 10.3180000000 
H 15.7780000000 9.9160000000 17.8470000000 
H 15.2720000000 11.1840000000 17.1840000000 
H 10.0130000000 9.5630000000 13.1220000000 
H 11.4450000000 9.3040000000 12.7550000000 
H 10.5490000000 5.8620000000 14.7720000000 
H 10.1290000000 7.1020000000 14.0060000000 
H 12.2390000000 8.0660000000 18.4530000000 
H 10.9930000000 7.0820000000 18.7970000000 
H 10.0120000000 4.1830000000 16.9690000000 
H 9.1530000000 5.1270000000 16.1470000000 
O 13.7930000000 14.6840000000 16.7970000000 
O 9.3340000000 11.0680000000 15.1280000000 
O 14.0710000000 8.7900000000 14.9740000000 
O 11.6370000000 11.8090000000 16.3120000000 
O 10.9870000000 12.1360000000 12.4940000000 
O 15.5450000000 12.5530000000 13.8030000000 
O 14.8810000000 10.1400000000 12.8200000000 
O 13.3130000000 6.4320000000 16.5690000000 
O 9.2400000000 8.5320000000 16.3780000000 
O 7.2120000000 10.2300000000 17.0030000000 
O 12.9380000000 13.1750000000 14.2770000000 
O 11.6920000000 13.7850000000 18.0580000000 
O 12.3490000000 9.6200000000 17.8480000000 
O 11.5740000000 4.6500000000 15.3130000000 
O 9.2490000000 7.3100000000 18.8870000000 
O 15.6860000000 12.6050000000 16.3930000000 
O 12.6330000000 10.3640000000 11.3020000000 
O 14.9920000000 10.2460000000 17.4080000000 
O 10.6490000000 8.8310000000 13.1690000000 
O 9.7970000000 6.5220000000 14.7240000000 
O 12.0430000000 7.0770000000 18.7560000000 
O 9.3350000000 4.9710000000 17.1110000000 

