&CONTROL
   calculation      = 'scf'
   tstress          = .true.
   tprnfor          = .true.
   outdir           = './195'
   disk_io          = 'none'
   pseudo_dir       = '/share/pfaendtnergroup/rverma7/QE_PP'
/
&SYSTEM
   ecutwfc          = 30
   input_dft        = 'PBE'
   ntyp             = 2
   nat              = 66
   ibrav            = 0
/
&ELECTRONS
   electron_maxstep = 1000
   mixing_beta      = 0.5
/
&IONS
/
&CELL
/

ATOMIC_SPECIES
H 1.008 H.pbe-rrkjus_psl.1.0.0.UPF
O 15.999 O.pbe-n-kjpaw_psl.0.1.UPF

K_POINTS gamma

CELL_PARAMETERS angstrom
40.06500000000000 0.00000000000000 0.00000000000000
0.00000000000000 40.06500000000000 0.00000000000000
0.00000000000000 0.00000000000000 40.06500000000000

ATOMIC_POSITIONS angstrom
H 10.9370000000 10.0930000000 19.0960000000 
H 12.4720000000 9.9100000000 18.6980000000 
H 11.5470000000 12.2270000000 15.4690000000 
H 10.7540000000 12.1200000000 14.0780000000 
H 8.3570000000 9.3300000000 12.7650000000 
H 9.2060000000 10.7840000000 12.6290000000 
H 11.4460000000 7.5580000000 15.6320000000 
H 12.1220000000 5.9860000000 15.6900000000 
H 11.8630000000 13.7650000000 20.9960000000 
H 12.4660000000 12.5760000000 20.0520000000 
H 13.3040000000 13.9240000000 18.8880000000 
H 14.0620000000 14.9680000000 17.8380000000 
H 11.6320000000 9.0370000000 14.1190000000 
H 10.7820000000 9.4350000000 12.7720000000 
H 11.8290000000 10.4980000000 15.4670000000 
H 12.3910000000 9.1480000000 16.4130000000 
H 14.5610000000 6.2130000000 11.2110000000 
H 13.0440000000 6.3510000000 11.3650000000 
H 12.9430000000 11.1610000000 13.8890000000 
H 13.3280000000 9.6950000000 13.1600000000 
H 11.5620000000 7.7960000000 11.7210000000 
H 11.0590000000 7.6990000000 10.1500000000 
H 8.6120000000 8.5760000000 16.8880000000 
H 9.6210000000 9.6530000000 16.1940000000 
H 14.9670000000 11.5010000000 16.5090000000 
H 14.2500000000 12.5690000000 17.5450000000 
H 16.7670000000 10.6750000000 14.0960000000 
H 15.1180000000 10.4170000000 14.1750000000 
H 15.1750000000 7.2990000000 15.0310000000 
H 15.6860000000 8.9330000000 15.4620000000 
H 8.2740000000 10.9860000000 16.3080000000 
H 7.8160000000 12.4390000000 16.8880000000 
H 12.1880000000 13.3530000000 17.1380000000 
H 11.3660000000 12.1100000000 17.8600000000 
H 10.0170000000 6.6180000000 16.9010000000 
H 8.8980000000 6.0130000000 17.8850000000 
H 14.5500000000 4.9930000000 14.4060000000 
H 13.8430000000 5.9340000000 13.4270000000 
H 10.8480000000 8.0810000000 20.1560000000 
H 9.7220000000 7.9890000000 18.9720000000 
H 14.0930000000 10.1300000000 17.4610000000 
H 14.4580000000 8.5250000000 17.5170000000 
H 8.5820000000 12.2900000000 14.6830000000 
H 8.1850000000 13.1720000000 13.3260000000 
O 11.7510000000 10.6310000000 18.9580000000 
O 11.6010000000 11.9080000000 14.4990000000 
O 9.1110000000 9.8200000000 12.3850000000 
O 11.3290000000 6.5200000000 15.9390000000 
O 12.4070000000 13.5920000000 20.1180000000 
O 13.7240000000 14.0090000000 17.9040000000 
O 11.5130000000 8.8440000000 13.0790000000 
O 11.7010000000 9.4780000000 15.6700000000 
O 13.8120000000 5.8840000000 11.8240000000 
O 13.7110000000 10.5070000000 13.6290000000 
O 11.6590000000 7.2730000000 10.8300000000 
O 8.6550000000 9.5300000000 16.6030000000 
O 14.5750000000 11.5880000000 17.4800000000 
O 16.0250000000 10.3190000000 14.7100000000 
O 15.5570000000 7.9180000000 15.7200000000 
O 8.0820000000 11.9930000000 16.0420000000 
O 11.4070000000 12.6610000000 16.9810000000 
O 9.4570000000 6.8080000000 17.6940000000 
O 14.1630000000 5.8970000000 14.4300000000 
O 10.1990000000 8.6160000000 19.6100000000 
O 13.7260000000 9.1590000000 17.7330000000 
O 8.8560000000 12.5230000000 13.6770000000 

