&CONTROL
   calculation      = 'scf'
   tstress          = .true.
   tprnfor          = .true.
   outdir           = './46'
   disk_io          = 'none'
   pseudo_dir       = '/share/pfaendtnergroup/rverma7/QE_PP'
/
&SYSTEM
   ecutwfc          = 30
   input_dft        = 'PBE'
   ntyp             = 2
   nat              = 66
   ibrav            = 0
/
&ELECTRONS
   electron_maxstep = 1000
   mixing_beta      = 0.5
/
&IONS
/
&CELL
/

ATOMIC_SPECIES
H 1.008 H.pbe-rrkjus_psl.1.0.0.UPF
O 15.999 O.pbe-n-kjpaw_psl.0.1.UPF

K_POINTS gamma

CELL_PARAMETERS angstrom
40.06500000000000 0.00000000000000 0.00000000000000
0.00000000000000 40.06500000000000 0.00000000000000
0.00000000000000 0.00000000000000 40.06500000000000

ATOMIC_POSITIONS angstrom
H 11.8060000000 9.6590000000 11.2890000000 
H 10.6130000000 8.5420000000 11.5770000000 
H 12.8990000000 13.2570000000 12.8640000000 
H 13.2010000000 11.7120000000 12.9710000000 
H 11.2240000000 12.7870000000 21.1780000000 
H 11.8480000000 11.4180000000 21.6470000000 
H 16.3030000000 5.6190000000 12.0360000000 
H 15.0700000000 6.6140000000 12.7330000000 
H 7.8310000000 11.3910000000 20.8970000000 
H 9.2830000000 11.0520000000 21.1060000000 
H 11.2370000000 7.9660000000 20.7760000000 
H 12.1370000000 8.6280000000 19.5810000000 
H 14.4970000000 8.7450000000 13.8470000000 
H 14.8550000000 8.7260000000 15.4250000000 
H 8.5550000000 8.9550000000 11.8890000000 
H 8.3950000000 7.4630000000 11.0380000000 
H 9.7180000000 12.6630000000 16.5870000000 
H 9.9130000000 11.5690000000 17.7220000000 
H 8.8460000000 10.3190000000 18.9850000000 
H 10.1560000000 9.7880000000 18.5200000000 
H 13.0100000000 15.0910000000 14.8090000000 
H 13.1500000000 13.4320000000 14.7960000000 
H 14.6180000000 6.8230000000 16.6440000000 
H 15.1520000000 7.7470000000 17.9310000000 
H 13.0500000000 9.9790000000 20.5550000000 
H 13.7720000000 11.1400000000 19.6880000000 
H 7.7340000000 10.6810000000 13.4110000000 
H 8.1360000000 9.3390000000 14.0640000000 
H 8.8700000000 9.3300000000 16.4060000000 
H 8.6790000000 7.7500000000 15.7310000000 
H 12.7460000000 11.5020000000 10.9720000000 
H 12.3320000000 10.8050000000 9.4870000000 
H 10.6370000000 9.5330000000 14.8310000000 
H 11.1610000000 9.5340000000 13.2700000000 
H 15.4020000000 5.6960000000 14.7500000000 
H 14.2510000000 4.5730000000 14.7820000000 
H 13.9600000000 10.8110000000 15.1450000000 
H 12.3450000000 11.1700000000 14.7130000000 
H 13.1620000000 6.7590000000 13.5340000000 
H 12.8600000000 7.9840000000 12.3920000000 
H 13.2440000000 11.8200000000 16.8160000000 
H 12.2330000000 12.1970000000 17.9450000000 
H 12.8620000000 8.4140000000 17.4990000000 
H 12.5850000000 9.9140000000 17.9760000000 
O 11.5990000000 8.7800000000 11.8260000000 
O 13.2100000000 12.4470000000 12.3140000000 
O 10.9860000000 11.9940000000 21.6320000000 
O 15.7600000000 5.8840000000 12.8100000000 
O 8.5450000000 10.8690000000 20.4730000000 
O 11.8950000000 8.7310000000 20.5820000000 
O 14.7010000000 9.3760000000 14.6450000000 
O 9.0170000000 8.2760000000 11.2260000000 
O 10.1310000000 12.5510000000 17.4900000000 
O 9.3120000000 10.0310000000 18.0930000000 
O 13.0850000000 14.2710000000 14.2480000000 
O 14.4600000000 7.7070000000 17.1740000000 
O 13.4830000000 10.8650000000 20.5680000000 
O 7.8360000000 9.6840000000 13.1560000000 
O 8.6860000000 8.7710000000 15.5130000000 
O 12.3080000000 10.7440000000 10.4680000000 
O 11.2860000000 9.9730000000 14.2330000000 
O 14.6670000000 5.3010000000 15.3370000000 
O 13.2080000000 11.6150000000 15.0850000000 
O 13.5600000000 7.4340000000 12.9260000000 
O 13.0780000000 11.5680000000 17.7550000000 
O 12.1690000000 8.9950000000 17.9670000000 

