&CONTROL
   calculation      = 'scf'
   tstress          = .true.
   tprnfor          = .true.
   outdir           = './323'
   disk_io          = 'none'
   pseudo_dir       = '/share/pfaendtnergroup/rverma7/QE_PP'
/
&SYSTEM
   ecutwfc          = 30
   input_dft        = 'PBE'
   ntyp             = 2
   nat              = 66
   ibrav            = 0
/
&ELECTRONS
   electron_maxstep = 1000
   mixing_beta      = 0.5
/
&IONS
/
&CELL
/

ATOMIC_SPECIES
H 1.008 H.pbe-rrkjus_psl.1.0.0.UPF
O 15.999 O.pbe-n-kjpaw_psl.0.1.UPF

K_POINTS gamma

CELL_PARAMETERS angstrom
40.06500000000000 0.00000000000000 0.00000000000000
0.00000000000000 40.06500000000000 0.00000000000000
0.00000000000000 0.00000000000000 40.06500000000000

ATOMIC_POSITIONS angstrom
H 8.3820000000 14.3560000000 19.9980000000 
H 8.5560000000 13.1860000000 18.9700000000 
H 12.9870000000 11.6910000000 14.5720000000 
H 11.7520000000 12.4510000000 13.7630000000 
H 9.9400000000 7.8120000000 14.5910000000 
H 11.4810000000 8.0000000000 14.7300000000 
H 13.0700000000 12.3610000000 11.8560000000 
H 12.2030000000 10.9550000000 11.9470000000 
H 11.7490000000 9.2010000000 19.6220000000 
H 11.9590000000 10.5870000000 19.0320000000 
H 16.4620000000 6.2150000000 17.4610000000 
H 15.1510000000 7.0750000000 17.9060000000 
H 7.3410000000 10.5470000000 17.8600000000 
H 7.1460000000 9.3070000000 18.8580000000 
H 13.6960000000 7.1720000000 14.7530000000 
H 14.5380000000 7.3250000000 16.0920000000 
H 11.7140000000 12.7350000000 16.2110000000 
H 11.9450000000 14.2010000000 16.9030000000 
H 11.5330000000 8.6930000000 12.6550000000 
H 12.8480000000 9.5670000000 13.1410000000 
H 11.3150000000 12.6520000000 18.5150000000 
H 10.3490000000 12.6390000000 19.7900000000 
H 7.9840000000 10.1160000000 15.2000000000 
H 7.4870000000 11.1990000000 14.0200000000 
H 14.3410000000 9.6190000000 14.8640000000 
H 14.8790000000 10.5240000000 13.6590000000 
H 13.7260000000 8.7270000000 18.9390000000 
H 14.3810000000 8.2920000000 20.1420000000 
H 12.5320000000 4.5360000000 12.8020000000 
H 11.7880000000 5.8880000000 13.2310000000 
H 9.3100000000 12.5630000000 17.3620000000 
H 8.0850000000 12.0010000000 16.5270000000 
H 12.6190000000 8.9970000000 15.9560000000 
H 11.8820000000 10.3500000000 16.0820000000 
H 14.0520000000 6.5440000000 11.5180000000 
H 13.8050000000 8.1200000000 11.1570000000 
H 8.9800000000 9.9820000000 21.4790000000 
H 9.8780000000 10.6970000000 20.2200000000 
H 16.6410000000 9.8670000000 12.2980000000 
H 16.5110000000 11.5700000000 12.2610000000 
H 9.8070000000 9.0710000000 16.1320000000 
H 8.3310000000 8.7540000000 16.5990000000 
H 15.9350000000 8.0290000000 11.3330000000 
H 17.4980000000 7.5390000000 11.3130000000 
O 8.9640000000 13.6210000000 19.7970000000 
O 12.1770000000 12.3040000000 14.7060000000 
O 10.8390000000 7.4380000000 14.2090000000 
O 12.1870000000 11.9570000000 11.8780000000 
O 12.4670000000 9.6870000000 19.1770000000 
O 15.5050000000 6.3640000000 17.2010000000 
O 7.2980000000 9.5820000000 17.9170000000 
O 14.0400000000 7.8700000000 15.3900000000 
O 11.5510000000 13.2920000000 17.0470000000 
O 12.2680000000 9.2670000000 12.3370000000 
O 11.1410000000 12.1450000000 19.3960000000 
O 7.5650000000 11.0810000000 15.0110000000 
O 14.0830000000 10.4420000000 14.3270000000 
O 14.4100000000 8.0370000000 19.2220000000 
O 12.5790000000 5.5830000000 12.7210000000 
O 8.3780000000 12.2540000000 17.5070000000 
O 11.6840000000 9.4450000000 15.8280000000 
O 14.4830000000 7.3930000000 11.1980000000 
O 9.3830000000 9.8990000000 20.5470000000 
O 16.1210000000 10.7570000000 12.6730000000 
O 8.8800000000 8.7480000000 15.7590000000 
O 16.9420000000 8.3190000000 11.5570000000 

