&CONTROL
   calculation      = 'scf'
   tstress          = .true.
   tprnfor          = .true.
   outdir           = './189'
   disk_io          = 'none'
   pseudo_dir       = '/share/pfaendtnergroup/rverma7/QE_PP'
/
&SYSTEM
   ecutwfc          = 30
   input_dft        = 'PBE'
   ntyp             = 2
   nat              = 66
   ibrav            = 0
/
&ELECTRONS
   electron_maxstep = 1000
   mixing_beta      = 0.5
/
&IONS
/
&CELL
/

ATOMIC_SPECIES
H 1.008 H.pbe-rrkjus_psl.1.0.0.UPF
O 15.999 O.pbe-n-kjpaw_psl.0.1.UPF

K_POINTS gamma

CELL_PARAMETERS angstrom
40.06500000000000 0.00000000000000 0.00000000000000
0.00000000000000 40.06500000000000 0.00000000000000
0.00000000000000 0.00000000000000 40.06500000000000

ATOMIC_POSITIONS angstrom
H 13.7260000000 11.9260000000 19.1530000000 
H 13.6210000000 11.8410000000 17.4330000000 
H 8.7820000000 11.8360000000 14.7250000000 
H 9.2620000000 11.7440000000 13.1590000000 
H 7.2950000000 9.0990000000 15.7500000000 
H 7.5700000000 7.4560000000 16.0480000000 
H 16.8730000000 10.2380000000 15.2950000000 
H 15.7940000000 9.0400000000 15.5090000000 
H 12.2520000000 15.3470000000 17.6800000000 
H 12.7990000000 13.8230000000 17.7330000000 
H 11.8570000000 13.8780000000 15.4550000000 
H 12.1030000000 12.6430000000 14.3500000000 
H 13.0700000000 6.3970000000 16.8540000000 
H 11.9530000000 7.2920000000 16.1620000000 
H 10.9950000000 8.9470000000 15.6840000000 
H 12.3520000000 9.7640000000 16.4070000000 
H 12.3340000000 5.6630000000 10.8740000000 
H 12.0230000000 6.0300000000 12.4190000000 
H 9.9190000000 9.5500000000 14.2580000000 
H 9.2990000000 8.1760000000 14.4350000000 
H 12.0550000000 5.5430000000 14.6100000000 
H 10.5020000000 5.1780000000 14.2330000000 
H 11.8690000000 9.4940000000 19.5510000000 
H 11.3540000000 9.5920000000 18.0350000000 
H 12.6160000000 10.3610000000 13.0450000000 
H 13.1250000000 11.7660000000 12.6480000000 
H 12.5950000000 8.0550000000 12.1600000000 
H 11.5770000000 8.3690000000 13.3330000000 
H 15.3280000000 7.9960000000 13.2740000000 
H 13.9240000000 8.6850000000 13.6340000000 
H 9.9280000000 10.9030000000 18.5700000000 
H 8.8080000000 12.0150000000 18.9160000000 
H 9.8640000000 13.1630000000 15.3790000000 
H 9.1460000000 12.4740000000 16.7020000000 
H 16.0030000000 10.1430000000 17.9220000000 
H 16.2230000000 11.1330000000 19.1520000000 
H 15.5450000000 5.8330000000 11.4620000000 
H 14.2950000000 6.7610000000 11.8630000000 
H 13.6540000000 9.9360000000 21.3240000000 
H 14.5410000000 9.9240000000 19.9460000000 
H 13.2080000000 11.0490000000 15.2180000000 
H 14.6480000000 10.5690000000 16.0200000000 
H 6.4060000000 10.9960000000 16.5950000000 
H 7.8520000000 10.6430000000 17.4360000000 
O 13.5070000000 12.3950000000 18.3200000000 
O 9.0860000000 11.1530000000 13.9560000000 
O 7.2650000000 8.1060000000 15.3640000000 
O 16.2170000000 9.8690000000 15.9690000000 
O 12.3590000000 14.5050000000 17.1270000000 
O 11.4120000000 13.2540000000 14.7340000000 
O 12.3610000000 6.3610000000 16.1590000000 
O 11.5950000000 9.0810000000 16.5740000000 
O 12.5330000000 6.3350000000 11.6210000000 
O 10.1930000000 8.5910000000 14.3200000000 
O 11.3910000000 5.2530000000 13.8850000000 
O 11.1070000000 9.8440000000 19.0100000000 
O 12.8730000000 11.2720000000 13.4240000000 
O 12.4070000000 8.7920000000 12.8460000000 
O 14.8260000000 8.4420000000 14.0260000000 
O 9.2460000000 11.5310000000 18.1020000000 
O 8.9900000000 13.0270000000 15.8330000000 
O 15.7700000000 10.2490000000 18.8950000000 
O 15.2820000000 6.7330000000 11.9240000000 
O 13.6260000000 9.6700000000 20.3600000000 
O 13.6800000000 10.8480000000 16.1030000000 
O 7.0120000000 10.2540000000 16.9770000000 

