&CONTROL
   calculation      = 'scf'
   tstress          = .true.
   tprnfor          = .true.
   outdir           = './237'
   disk_io          = 'none'
   pseudo_dir       = '/share/pfaendtnergroup/rverma7/QE_PP'
/
&SYSTEM
   ecutwfc          = 30
   input_dft        = 'PBE'
   ntyp             = 2
   nat              = 66
   ibrav            = 0
/
&ELECTRONS
   electron_maxstep = 1000
   mixing_beta      = 0.5
/
&IONS
/
&CELL
/

ATOMIC_SPECIES
H 1.008 H.pbe-rrkjus_psl.1.0.0.UPF
O 15.999 O.pbe-n-kjpaw_psl.0.1.UPF

K_POINTS gamma

CELL_PARAMETERS angstrom
40.06500000000000 0.00000000000000 0.00000000000000
0.00000000000000 40.06500000000000 0.00000000000000
0.00000000000000 0.00000000000000 40.06500000000000

ATOMIC_POSITIONS angstrom
H 9.3230000000 9.9900000000 16.9850000000 
H 8.7970000000 10.9660000000 16.1230000000 
H 14.0300000000 8.5390000000 12.4350000000 
H 13.1820000000 9.1180000000 13.7730000000 
H 7.8210000000 12.3710000000 13.9200000000 
H 9.3390000000 12.2960000000 14.3110000000 
H 13.6060000000 8.1910000000 17.5530000000 
H 13.0530000000 9.1750000000 18.7850000000 
H 10.5340000000 11.9880000000 17.4700000000 
H 10.6050000000 12.8430000000 18.8410000000 
H 12.5130000000 11.5500000000 18.4840000000 
H 13.9900000000 10.9760000000 18.0500000000 
H 15.2810000000 5.4790000000 17.7220000000 
H 16.0930000000 4.2830000000 16.9470000000 
H 11.5060000000 16.8030000000 13.2180000000 
H 12.4570000000 15.4670000000 12.9770000000 
H 11.9390000000 6.8290000000 17.9680000000 
H 12.1840000000 5.2840000000 17.9960000000 
H 10.1770000000 8.6510000000 12.1480000000 
H 9.2490000000 9.5890000000 11.1710000000 
H 13.1930000000 10.5110000000 15.5430000000 
H 14.7160000000 10.4120000000 16.2120000000 
H 10.7110000000 7.5660000000 14.0060000000 
H 11.6330000000 6.5410000000 13.1380000000 
H 11.9910000000 13.2640000000 16.8280000000 
H 13.3270000000 12.7270000000 16.0780000000 
H 14.5340000000 5.3560000000 19.9920000000 
H 13.7350000000 6.4200000000 19.0900000000 
H 14.3800000000 7.9550000000 15.1390000000 
H 15.5550000000 7.7930000000 16.3750000000 
H 7.7450000000 8.5650000000 15.3570000000 
H 6.8830000000 8.3020000000 16.6580000000 
H 13.4000000000 13.9290000000 14.3080000000 
H 14.7350000000 14.5530000000 13.7600000000 
H 9.2860000000 8.0570000000 16.0070000000 
H 10.5630000000 6.9960000000 16.5260000000 
H 16.7770000000 6.8320000000 17.1520000000 
H 17.8100000000 7.7890000000 16.3860000000 
H 7.7040000000 10.1180000000 14.1330000000 
H 8.1120000000 9.0620000000 13.0110000000 
H 11.2490000000 13.3950000000 14.7820000000 
H 10.5700000000 14.1930000000 13.6940000000 
H 11.5190000000 9.1340000000 15.2490000000 
H 11.1330000000 10.5580000000 14.4430000000 
O 9.5390000000 10.9320000000 16.8160000000 
O 14.0520000000 8.6620000000 13.4410000000 
O 8.4610000000 11.7160000000 14.4030000000 
O 13.1230000000 8.1980000000 18.4980000000 
O 11.1340000000 12.6380000000 18.0010000000 
O 13.2140000000 10.8660000000 18.7710000000 
O 16.2330000000 5.2450000000 17.3900000000 
O 11.4500000000 15.8270000000 12.9500000000 
O 11.5670000000 5.9820000000 17.5720000000 
O 9.3170000000 9.1620000000 12.0340000000 
O 13.8970000000 10.9980000000 16.1340000000 
O 11.2020000000 7.4030000000 13.1170000000 
O 12.5910000000 13.4460000000 15.9920000000 
O 14.0140000000 5.4620000000 19.1280000000 
O 14.5420000000 7.9620000000 16.1590000000 
O 7.8160000000 8.4690000000 16.3480000000 
O 13.7550000000 14.5320000000 13.5680000000 
O 10.2520000000 7.7180000000 15.7540000000 
O 16.9820000000 7.8590000000 16.8960000000 
O 7.3770000000 9.2610000000 13.7780000000 
O 10.4890000000 13.3360000000 14.1380000000 
O 11.8560000000 9.9130000000 14.6630000000 

