&CONTROL
   calculation      = 'scf'
   tstress          = .true.
   tprnfor          = .true.
   outdir           = './484'
   disk_io          = 'none'
   pseudo_dir       = '/share/pfaendtnergroup/rverma7/QE_PP'
/
&SYSTEM
   ecutwfc          = 30
   input_dft        = 'PBE'
   ntyp             = 2
   nat              = 66
   ibrav            = 0
/
&ELECTRONS
   electron_maxstep = 1000
   mixing_beta      = 0.5
/
&IONS
/
&CELL
/

ATOMIC_SPECIES
H 1.008 H.pbe-rrkjus_psl.1.0.0.UPF
O 15.999 O.pbe-n-kjpaw_psl.0.1.UPF

K_POINTS gamma

CELL_PARAMETERS angstrom
40.06500000000000 0.00000000000000 0.00000000000000
0.00000000000000 40.06500000000000 0.00000000000000
0.00000000000000 0.00000000000000 40.06500000000000

ATOMIC_POSITIONS angstrom
H 6.8540000000 5.4980000000 18.2450000000 
H 7.5490000000 6.4180000000 17.1510000000 
H 11.6190000000 11.0460000000 18.1710000000 
H 10.5930000000 12.2910000000 18.4970000000 
H 13.8380000000 11.0010000000 11.6430000000 
H 13.9880000000 9.7330000000 12.4560000000 
H 7.8500000000 8.9740000000 16.3540000000 
H 6.3300000000 8.5480000000 16.3040000000 
H 10.5850000000 6.8100000000 17.5880000000 
H 9.3690000000 5.6750000000 17.2120000000 
H 15.6010000000 14.0100000000 18.8320000000 
H 14.9010000000 13.8780000000 17.4690000000 
H 10.5630000000 7.6560000000 11.5970000000 
H 10.6920000000 7.6080000000 13.2260000000 
H 12.6820000000 11.1180000000 13.8410000000 
H 12.0970000000 12.5560000000 14.5930000000 
H 13.2030000000 13.1130000000 16.3450000000 
H 14.0640000000 13.8800000000 15.3700000000 
H 10.4730000000 9.1330000000 18.4300000000 
H 11.4460000000 8.7970000000 17.1650000000 
H 14.9160000000 11.2280000000 13.8830000000 
H 15.4180000000 10.6680000000 15.1750000000 
H 13.8080000000 10.4040000000 17.1980000000 
H 13.9400000000 11.7880000000 18.0890000000 
H 13.1030000000 4.6830000000 16.7730000000 
H 12.0560000000 5.7530000000 16.3140000000 
H 12.8690000000 13.9850000000 18.5870000000 
H 11.6280000000 14.1250000000 17.4180000000 
H 9.2370000000 10.7980000000 17.2450000000 
H 8.7750000000 10.9350000000 15.6670000000 
H 14.7730000000 8.2070000000 16.2350000000 
H 13.4240000000 8.8440000000 15.7620000000 
H 15.8170000000 13.1010000000 15.4390000000 
H 16.6180000000 14.3780000000 15.5070000000 
H 8.6960000000 7.6860000000 14.9170000000 
H 10.1230000000 7.0310000000 15.0140000000 
H 11.6360000000 10.0980000000 15.1420000000 
H 10.6540000000 8.7550000000 15.1270000000 
H 12.9750000000 7.8870000000 12.1420000000 
H 14.3050000000 7.3990000000 12.7730000000 
H 9.0810000000 11.2140000000 13.2340000000 
H 10.2020000000 11.7880000000 14.2400000000 
H 15.1630000000 5.7130000000 14.2070000000 
H 13.6240000000 6.1760000000 14.4550000000 
O 7.7310000000 5.6360000000 17.6390000000 
O 10.6600000000 11.2940000000 18.2020000000 
O 13.9250000000 10.7790000000 12.6130000000 
O 7.1970000000 8.1310000000 16.3250000000 
O 10.3050000000 6.0110000000 16.9650000000 
O 14.7100000000 13.7210000000 18.3960000000 
O 11.2200000000 7.7220000000 12.3360000000 
O 11.8400000000 11.5940000000 14.2840000000 
O 13.0800000000 13.6230000000 15.4990000000 
O 11.0650000000 8.3890000000 17.9790000000 
O 15.5230000000 11.4830000000 14.5970000000 
O 13.3060000000 11.2220000000 17.5380000000 
O 12.9470000000 5.4220000000 16.1050000000 
O 11.8290000000 14.0190000000 18.4030000000 
O 8.5990000000 10.3680000000 16.5550000000 
O 14.3820000000 9.1000000000 16.1640000000 
O 15.7020000000 14.0970000000 15.7030000000 
O 9.5950000000 7.7230000000 14.5340000000 
O 11.5960000000 9.1180000000 15.4120000000 
O 13.9640000000 8.1730000000 12.1420000000 
O 9.1870000000 11.6520000000 14.1520000000 
O 14.4500000000 6.3040000000 13.8950000000 

