&CONTROL
   calculation      = 'scf'
   tstress          = .true.
   tprnfor          = .true.
   outdir           = './318'
   disk_io          = 'none'
   pseudo_dir       = '/share/pfaendtnergroup/rverma7/QE_PP'
/
&SYSTEM
   ecutwfc          = 30
   input_dft        = 'PBE'
   ntyp             = 2
   nat              = 66
   ibrav            = 0
/
&ELECTRONS
   electron_maxstep = 1000
   mixing_beta      = 0.5
/
&IONS
/
&CELL
/

ATOMIC_SPECIES
H 1.008 H.pbe-rrkjus_psl.1.0.0.UPF
O 15.999 O.pbe-n-kjpaw_psl.0.1.UPF

K_POINTS gamma

CELL_PARAMETERS angstrom
40.06500000000000 0.00000000000000 0.00000000000000
0.00000000000000 40.06500000000000 0.00000000000000
0.00000000000000 0.00000000000000 40.06500000000000

ATOMIC_POSITIONS angstrom
H 7.1550000000 12.9620000000 17.1770000000 
H 7.4730000000 11.4930000000 16.4570000000 
H 11.4770000000 10.9790000000 14.7400000000 
H 12.6460000000 10.7440000000 15.7940000000 
H 14.7230000000 8.7290000000 13.5060000000 
H 15.6520000000 9.0320000000 14.9230000000 
H 11.2320000000 6.4530000000 14.8270000000 
H 10.2270000000 5.1150000000 14.6520000000 
H 11.7460000000 11.2600000000 19.8050000000 
H 11.6530000000 12.1550000000 18.6450000000 
H 15.1900000000 12.9160000000 16.4400000000 
H 16.4400000000 12.5590000000 17.4790000000 
H 8.1080000000 10.8370000000 18.7940000000 
H 8.3050000000 9.2930000000 18.1730000000 
H 17.4030000000 10.3690000000 15.2520000000 
H 16.2120000000 11.2000000000 15.8000000000 
H 12.9880000000 12.6070000000 16.2740000000 
H 13.1700000000 13.0760000000 17.8700000000 
H 12.0010000000 8.5540000000 14.0720000000 
H 12.8450000000 9.3350000000 13.0260000000 
H 10.7640000000 12.3850000000 16.8860000000 
H 9.3390000000 12.4310000000 17.5230000000 
H 10.3370000000 8.3920000000 16.8160000000 
H 9.5640000000 7.7580000000 15.6840000000 
H 14.5680000000 10.0860000000 11.6280000000 
H 14.1500000000 8.5770000000 11.2460000000 
H 14.0500000000 11.5870000000 19.0230000000 
H 15.0940000000 11.0890000000 20.2990000000 
H 12.5280000000 7.5940000000 16.1790000000 
H 13.4240000000 7.5320000000 14.7730000000 
H 6.9940000000 9.4690000000 14.9960000000 
H 8.3440000000 9.5640000000 15.9020000000 
H 14.6530000000 10.3620000000 17.7190000000 
H 14.6580000000 9.4410000000 16.1770000000 
H 9.1450000000 8.1060000000 12.4740000000 
H 10.4050000000 9.1110000000 12.2370000000 
H 10.3860000000 9.4880000000 21.2480000000 
H 10.0220000000 9.9400000000 19.6590000000 
H 12.4200000000 7.0840000000 10.0700000000 
H 12.9970000000 8.1550000000 9.0200000000 
H 12.6110000000 9.2170000000 17.6030000000 
H 11.4680000000 8.6990000000 18.7140000000 
H 9.9470000000 7.4920000000 10.3440000000 
H 10.5690000000 6.2630000000 11.0760000000 
O 7.8120000000 12.2150000000 17.2070000000 
O 11.9860000000 11.4970000000 15.4880000000 
O 14.8650000000 8.4600000000 14.5470000000 
O 10.2440000000 6.1390000000 14.6930000000 
O 12.3670000000 11.8910000000 19.3180000000 
O 16.1180000000 12.5010000000 16.4860000000 
O 8.5980000000 9.9490000000 18.9200000000 
O 16.4650000000 10.2130000000 15.4940000000 
O 13.5810000000 13.1280000000 16.9230000000 
O 11.9310000000 9.4020000000 13.4520000000 
O 10.3580000000 12.4820000000 17.7930000000 
O 9.4890000000 8.5560000000 16.2770000000 
O 14.2430000000 9.2410000000 12.0350000000 
O 14.9930000000 11.2760000000 19.2870000000 
O 12.5150000000 7.2650000000 15.2360000000 
O 7.5520000000 10.1640000000 15.5430000000 
O 14.0680000000 9.8930000000 16.9360000000 
O 9.6140000000 8.6200000000 11.7650000000 
O 10.7570000000 9.8280000000 20.3420000000 
O 13.2320000000 7.6240000000 9.8550000000 
O 11.7470000000 8.6420000000 17.7390000000 
O 10.5090000000 6.6660000000 10.1520000000 

