&CONTROL
   calculation      = 'scf'
   tstress          = .true.
   tprnfor          = .true.
   outdir           = './287'
   disk_io          = 'none'
   pseudo_dir       = '/share/pfaendtnergroup/rverma7/QE_PP'
/
&SYSTEM
   ecutwfc          = 30
   input_dft        = 'PBE'
   ntyp             = 2
   nat              = 66
   ibrav            = 0
/
&ELECTRONS
   electron_maxstep = 1000
   mixing_beta      = 0.5
/
&IONS
/
&CELL
/

ATOMIC_SPECIES
H 1.008 H.pbe-rrkjus_psl.1.0.0.UPF
O 15.999 O.pbe-n-kjpaw_psl.0.1.UPF

K_POINTS gamma

CELL_PARAMETERS angstrom
40.06500000000000 0.00000000000000 0.00000000000000
0.00000000000000 40.06500000000000 0.00000000000000
0.00000000000000 0.00000000000000 40.06500000000000

ATOMIC_POSITIONS angstrom
H 7.3350000000 12.4620000000 17.8080000000 
H 7.7760000000 12.1580000000 16.1790000000 
H 10.3300000000 10.3010000000 14.0570000000 
H 10.7360000000 11.5460000000 14.9590000000 
H 12.7080000000 9.9460000000 19.9940000000 
H 11.4440000000 10.5530000000 19.2720000000 
H 14.9130000000 5.6440000000 15.6790000000 
H 14.2560000000 6.7320000000 14.7390000000 
H 12.6250000000 12.3910000000 18.7270000000 
H 11.9210000000 13.9500000000 18.7720000000 
H 6.0490000000 9.9110000000 15.7200000000 
H 7.1670000000 10.2920000000 16.7360000000 
H 9.9190000000 7.6160000000 17.6460000000 
H 10.9430000000 8.7750000000 17.8570000000 
H 14.6690000000 9.4090000000 17.8550000000 
H 14.7710000000 10.8870000000 18.3660000000 
H 7.7190000000 7.9590000000 16.8320000000 
H 7.9340000000 6.4470000000 16.4080000000 
H 10.4460000000 11.4130000000 12.1680000000 
H 11.4940000000 10.1760000000 12.4240000000 
H 17.4290000000 10.8410000000 13.2520000000 
H 16.2820000000 10.0150000000 12.8980000000 
H 11.0910000000 7.0000000000 15.7860000000 
H 12.3100000000 6.0300000000 15.1670000000 
H 12.8360000000 11.6780000000 15.5140000000 
H 12.1380000000 12.5070000000 16.7330000000 
H 10.8270000000 10.9200000000 17.0200000000 
H 9.3300000000 10.8830000000 17.5320000000 
H 13.2360000000 11.3990000000 9.6400000000 
H 12.8430000000 10.7670000000 11.0240000000 
H 7.8780000000 13.4340000000 13.8930000000 
H 8.6700000000 12.0440000000 14.2750000000 
H 13.5340000000 8.1930000000 19.6870000000 
H 13.7290000000 7.9960000000 21.2370000000 
H 14.3930000000 9.2520000000 14.6370000000 
H 14.5570000000 8.7850000000 13.1890000000 
H 13.9040000000 6.5690000000 17.5730000000 
H 12.5430000000 7.2370000000 18.2410000000 
H 12.4710000000 9.1500000000 14.1290000000 
H 11.2010000000 8.1740000000 14.1340000000 
H 15.1730000000 11.1050000000 14.4950000000 
H 14.7210000000 10.9360000000 16.0670000000 
H 15.7840000000 8.6980000000 10.9860000000 
H 14.6490000000 9.9160000000 11.0750000000 
O 7.9420000000 11.8840000000 17.2100000000 
O 9.9520000000 11.2100000000 14.3560000000 
O 12.4620000000 10.7430000000 19.3720000000 
O 14.0380000000 5.9640000000 15.3850000000 
O 12.3590000000 13.2050000000 18.1970000000 
O 6.7520000000 9.4990000000 16.3150000000 
O 10.9240000000 7.7690000000 17.7330000000 
O 14.9710000000 10.3180000000 17.6130000000 
O 8.2330000000 7.1570000000 17.0500000000 
O 11.3250000000 11.0410000000 11.8620000000 
O 16.5490000000 10.6820000000 13.5890000000 
O 11.5410000000 6.6760000000 14.9450000000 
O 11.9390000000 11.9180000000 15.9220000000 
O 10.2520000000 10.4710000000 17.7220000000 
O 13.4970000000 10.6720000000 10.2450000000 
O 7.8060000000 12.5960000000 14.4100000000 
O 13.3940000000 8.6240000000 20.6100000000 
O 14.2440000000 8.4200000000 14.0490000000 
O 13.6540000000 7.1590000000 18.3330000000 
O 11.4850000000 9.1150000000 13.8480000000 
O 14.3370000000 11.0580000000 15.1300000000 
O 15.2730000000 9.2900000000 11.6530000000 

