&CONTROL
   calculation      = 'scf'
   tstress          = .true.
   tprnfor          = .true.
   outdir           = './268'
   disk_io          = 'none'
   pseudo_dir       = '/share/pfaendtnergroup/rverma7/QE_PP'
/
&SYSTEM
   ecutwfc          = 30
   input_dft        = 'PBE'
   ntyp             = 2
   nat              = 66
   ibrav            = 0
/
&ELECTRONS
   electron_maxstep = 1000
   mixing_beta      = 0.5
/
&IONS
/
&CELL
/

ATOMIC_SPECIES
H 1.008 H.pbe-rrkjus_psl.1.0.0.UPF
O 15.999 O.pbe-n-kjpaw_psl.0.1.UPF

K_POINTS gamma

CELL_PARAMETERS angstrom
40.06500000000000 0.00000000000000 0.00000000000000
0.00000000000000 40.06500000000000 0.00000000000000
0.00000000000000 0.00000000000000 40.06500000000000

ATOMIC_POSITIONS angstrom
H 10.1360000000 9.5350000000 21.2820000000 
H 11.5270000000 9.0670000000 20.7760000000 
H 10.9170000000 7.6610000000 18.0440000000 
H 12.3140000000 6.8490000000 17.4820000000 
H 10.2840000000 12.2120000000 13.9870000000 
H 9.2350000000 11.0710000000 14.0710000000 
H 12.9660000000 9.4870000000 13.8150000000 
H 14.4380000000 9.4520000000 13.2070000000 
H 9.4410000000 12.0220000000 16.1880000000 
H 9.2970000000 12.9770000000 17.3800000000 
H 11.9570000000 11.8830000000 19.0010000000 
H 11.2850000000 11.9180000000 17.5470000000 
H 14.2470000000 14.7770000000 13.2200000000 
H 14.8700000000 13.2150000000 13.3880000000 
H 8.0120000000 10.3480000000 10.6590000000 
H 9.5480000000 10.9750000000 10.9840000000 
H 15.6150000000 11.9480000000 14.9230000000 
H 15.6930000000 11.3890000000 13.4180000000 
H 14.1170000000 7.4780000000 16.5150000000 
H 12.9600000000 6.8500000000 15.4590000000 
H 7.3250000000 6.6430000000 14.1230000000 
H 8.5850000000 6.8040000000 14.8440000000 
H 18.9360000000 10.0380000000 15.1750000000 
H 17.9020000000 11.4550000000 15.1320000000 
H 10.4520000000 9.3200000000 18.8200000000 
H 10.0150000000 9.9960000000 17.4880000000 
H 13.4630000000 12.1040000000 15.4090000000 
H 13.4680000000 11.6690000000 17.0250000000 
H 9.6100000000 5.9090000000 17.0380000000 
H 10.0680000000 5.5950000000 15.5330000000 
H 13.0400000000 7.7090000000 22.5130000000 
H 11.8320000000 7.1560000000 21.3830000000 
H 11.0650000000 12.1550000000 11.5530000000 
H 10.3760000000 13.2760000000 10.7030000000 
H 16.4630000000 9.6430000000 15.6780000000 
H 14.7820000000 10.0300000000 16.0310000000 
H 12.9250000000 11.3450000000 12.7080000000 
H 13.0530000000 12.9480000000 12.6000000000 
H 11.8400000000 6.1350000000 19.6310000000 
H 12.0920000000 4.6990000000 20.3650000000 
H 8.8110000000 8.6390000000 13.6470000000 
H 9.3480000000 9.7460000000 12.4740000000 
H 11.4560000000 8.9860000000 16.1890000000 
H 10.7530000000 9.2110000000 14.6910000000 
O 10.6080000000 9.4340000000 20.4400000000 
O 11.4710000000 6.7470000000 18.0190000000 
O 9.4120000000 11.9970000000 14.3810000000 
O 13.6290000000 10.0110000000 13.2790000000 
O 9.7280000000 12.1120000000 17.1290000000 
O 12.2240000000 11.7660000000 18.0400000000 
O 14.2200000000 13.8230000000 12.8430000000 
O 8.9790000000 10.1110000000 10.9740000000 
O 15.8940000000 12.1760000000 13.9540000000 
O 13.4350000000 6.7730000000 16.3400000000 
O 8.1080000000 7.2270000000 14.1520000000 
O 17.9520000000 10.4630000000 15.3520000000 
O 10.5630000000 9.2350000000 17.8270000000 
O 14.0580000000 11.7560000000 16.1340000000 
O 9.3220000000 5.9330000000 16.1250000000 
O 12.3110000000 7.9400000000 21.7830000000 
O 10.2730000000 12.3100000000 10.9460000000 
O 15.4920000000 9.3280000000 15.9380000000 
O 12.3280000000 12.1690000000 12.5070000000 
O 11.8990000000 5.6300000000 20.5520000000 
O 9.3520000000 9.5280000000 13.5180000000 
O 11.6630000000 9.0090000000 15.2100000000 

