&CONTROL
   calculation      = 'scf'
   tstress          = .true.
   tprnfor          = .true.
   outdir           = './175'
   disk_io          = 'none'
   pseudo_dir       = '/share/pfaendtnergroup/rverma7/QE_PP'
/
&SYSTEM
   ecutwfc          = 30
   input_dft        = 'PBE'
   ntyp             = 2
   nat              = 66
   ibrav            = 0
/
&ELECTRONS
   electron_maxstep = 1000
   mixing_beta      = 0.5
/
&IONS
/
&CELL
/

ATOMIC_SPECIES
H 1.008 H.pbe-rrkjus_psl.1.0.0.UPF
O 15.999 O.pbe-n-kjpaw_psl.0.1.UPF

K_POINTS gamma

CELL_PARAMETERS angstrom
40.06500000000000 0.00000000000000 0.00000000000000
0.00000000000000 40.06500000000000 0.00000000000000
0.00000000000000 0.00000000000000 40.06500000000000

ATOMIC_POSITIONS angstrom
H 10.6500000000 11.6140000000 12.6570000000 
H 10.7470000000 10.0890000000 12.0940000000 
H 9.1950000000 9.0200000000 18.4780000000 
H 10.2060000000 9.0220000000 17.1360000000 
H 8.7960000000 12.4230000000 21.2150000000 
H 9.5730000000 12.9990000000 19.8170000000 
H 13.8070000000 8.5510000000 11.3430000000 
H 13.8650000000 9.4820000000 9.9230000000 
H 12.8460000000 11.8340000000 14.4480000000 
H 12.1420000000 13.1920000000 14.2710000000 
H 9.2300000000 10.9510000000 16.1190000000 
H 7.9800000000 11.5480000000 16.9970000000 
H 14.2720000000 10.5170000000 19.0850000000 
H 14.4480000000 9.8300000000 17.7650000000 
H 14.4910000000 10.6100000000 15.2750000000 
H 15.6900000000 11.3790000000 15.9380000000 
H 13.1930000000 4.9290000000 18.7790000000 
H 13.6770000000 6.2570000000 18.1260000000 
H 15.1160000000 5.1590000000 15.3100000000 
H 13.6920000000 4.8640000000 14.7990000000 
H 13.2240000000 8.4490000000 18.3920000000 
H 11.5530000000 7.8350000000 18.0900000000 
H 12.7620000000 10.4430000000 13.0960000000 
H 14.2190000000 9.8020000000 13.2250000000 
H 7.0220000000 10.5530000000 18.7820000000 
H 8.4030000000 11.1980000000 19.2770000000 
H 13.8500000000 8.2350000000 13.8490000000 
H 14.4650000000 6.9500000000 12.9670000000 
H 11.9060000000 9.2300000000 15.5460000000 
H 10.7610000000 9.9030000000 14.6510000000 
H 11.7940000000 11.1500000000 17.1730000000 
H 12.1630000000 12.4630000000 16.3630000000 
H 11.0540000000 14.5920000000 18.7900000000 
H 11.1150000000 13.0630000000 18.4340000000 
H 7.5520000000 12.8280000000 13.4460000000 
H 8.5760000000 12.4010000000 14.6660000000 
H 12.8610000000 7.7200000000 16.3360000000 
H 13.6850000000 7.1880000000 15.1300000000 
H 10.0800000000 13.4290000000 13.4620000000 
H 10.8710000000 14.7520000000 12.9880000000 
H 10.7740000000 7.3690000000 10.2100000000 
H 11.8180000000 8.2760000000 10.9830000000 
H 16.7330000000 4.1420000000 17.1420000000 
H 15.2900000000 4.9730000000 17.3350000000 
O 10.8690000000 10.6740000000 12.9010000000 
O 9.9160000000 8.5130000000 17.9960000000 
O 8.7470000000 12.3800000000 20.1960000000 
O 13.2760000000 9.1250000000 10.6410000000 
O 12.8200000000 12.7440000000 14.9270000000 
O 8.3730000000 11.5180000000 16.0560000000 
O 14.0850000000 9.6200000000 18.6690000000 
O 15.0760000000 10.6160000000 16.1530000000 
O 13.9420000000 5.2800000000 18.2880000000 
O 14.4320000000 5.4870000000 14.6190000000 
O 12.6130000000 7.6710000000 17.9660000000 
O 13.5800000000 10.5290000000 13.6230000000 
O 8.0130000000 10.4830000000 18.6350000000 
O 14.2710000000 7.9650000000 13.0010000000 
O 10.9510000000 9.6690000000 15.6220000000 
O 11.6850000000 12.1250000000 17.2430000000 
O 10.6470000000 13.7180000000 19.0320000000 
O 8.4730000000 12.9010000000 13.7760000000 
O 13.1850000000 8.0170000000 15.4120000000 
O 11.0190000000 13.7770000000 13.2280000000 
O 10.8380000000 8.0200000000 10.9180000000 
O 16.1040000000 4.7450000000 16.6780000000 

