&CONTROL
   calculation      = 'scf'
   tstress          = .true.
   tprnfor          = .true.
   outdir           = './139'
   disk_io          = 'none'
   pseudo_dir       = '/share/pfaendtnergroup/rverma7/QE_PP'
/
&SYSTEM
   ecutwfc          = 30
   input_dft        = 'PBE'
   ntyp             = 2
   nat              = 66
   ibrav            = 0
/
&ELECTRONS
   electron_maxstep = 1000
   mixing_beta      = 0.5
/
&IONS
/
&CELL
/

ATOMIC_SPECIES
H 1.008 H.pbe-rrkjus_psl.1.0.0.UPF
O 15.999 O.pbe-n-kjpaw_psl.0.1.UPF

K_POINTS gamma

CELL_PARAMETERS angstrom
40.06500000000000 0.00000000000000 0.00000000000000
0.00000000000000 40.06500000000000 0.00000000000000
0.00000000000000 0.00000000000000 40.06500000000000

ATOMIC_POSITIONS angstrom
H 12.4180000000 12.7730000000 12.5620000000 
H 12.9690000000 12.8990000000 11.1220000000 
H 12.4240000000 7.7480000000 18.5080000000 
H 11.1450000000 8.0080000000 19.5380000000 
H 8.4320000000 10.5230000000 15.9950000000 
H 8.1950000000 12.0260000000 15.5700000000 
H 17.0340000000 10.8090000000 14.4490000000 
H 15.5480000000 10.2340000000 14.2750000000 
H 10.4310000000 13.1850000000 16.4680000000 
H 9.2170000000 13.9210000000 17.2460000000 
H 6.6880000000 10.3310000000 13.5930000000 
H 5.8900000000 9.7030000000 12.4130000000 
H 13.1380000000 12.7710000000 15.8510000000 
H 12.2000000000 11.4440000000 16.1460000000 
H 14.8970000000 8.0360000000 17.6840000000 
H 13.9950000000 7.1280000000 16.8050000000 
H 9.1050000000 9.2670000000 17.9660000000 
H 10.3070000000 9.4700000000 16.8180000000 
H 16.5710000000 7.9430000000 14.2140000000 
H 14.8600000000 7.8230000000 14.4240000000 
H 16.6850000000 6.2160000000 17.5130000000 
H 16.4260000000 7.4230000000 16.4530000000 
H 19.2920000000 11.0100000000 14.4850000000 
H 19.2170000000 9.7030000000 13.5240000000 
H 8.0950000000 7.4230000000 14.4390000000 
H 8.0500000000 8.4710000000 13.2710000000 
H 14.1110000000 13.5090000000 13.8070000000 
H 15.0530000000 12.5740000000 14.8060000000 
H 10.2040000000 12.7670000000 13.9230000000 
H 11.5920000000 12.5060000000 14.5080000000 
H 10.8080000000 9.5740000000 21.4580000000 
H 9.8990000000 10.0780000000 20.2870000000 
H 9.2890000000 11.1800000000 18.7100000000 
H 8.0980000000 12.1880000000 19.2050000000 
H 12.7900000000 9.1550000000 16.8170000000 
H 11.6350000000 9.0470000000 15.6020000000 
H 10.4640000000 6.2840000000 17.9540000000 
H 10.3770000000 4.6320000000 17.8700000000 
H 11.1820000000 10.7930000000 13.0880000000 
H 10.3210000000 9.3510000000 12.9580000000 
H 12.6490000000 7.7510000000 14.1480000000 
H 12.9950000000 9.0590000000 13.4250000000 
H 10.3660000000 7.1420000000 14.5920000000 
H 10.8890000000 6.5650000000 15.8840000000 
O 13.3220000000 12.9460000000 12.0690000000 
O 11.4250000000 7.5150000000 18.6570000000 
O 7.8310000000 11.0860000000 15.4110000000 
O 16.0640000000 11.0830000000 14.5010000000 
O 9.4560000000 13.2300000000 16.5950000000 
O 6.7680000000 9.6940000000 12.7980000000 
O 12.1770000000 12.4700000000 16.2380000000 
O 13.9280000000 7.8700000000 17.4140000000 
O 9.4060000000 9.8960000000 17.2120000000 
O 15.8100000000 7.5590000000 14.8190000000 
O 16.6930000000 7.2280000000 17.4220000000 
O 18.6450000000 10.2610000000 14.1640000000 
O 8.7200000000 7.9020000000 13.8070000000 
O 14.2230000000 13.2190000000 14.8100000000 
O 11.1540000000 12.4800000000 13.5890000000 
O 10.4000000000 9.2650000000 20.5780000000 
O 8.8880000000 11.6120000000 19.5300000000 
O 11.9840000000 9.6710000000 16.3020000000 
O 10.1450000000 5.4650000000 17.4030000000 
O 11.2080000000 9.7970000000 13.3240000000 
O 13.4650000000 8.2550000000 13.7900000000 
O 11.1590000000 7.1950000000 15.1740000000 

