&CONTROL
   calculation      = 'scf'
   tstress          = .true.
   tprnfor          = .true.
   outdir           = './16'
   disk_io          = 'none'
   pseudo_dir       = '/share/pfaendtnergroup/rverma7/QE_PP'
/
&SYSTEM
   ecutwfc          = 30
   input_dft        = 'PBE'
   ntyp             = 2
   nat              = 66
   ibrav            = 0
/
&ELECTRONS
   electron_maxstep = 1000
   mixing_beta      = 0.5
/
&IONS
/
&CELL
/

ATOMIC_SPECIES
H 1.008 H.pbe-rrkjus_psl.1.0.0.UPF
O 15.999 O.pbe-n-kjpaw_psl.0.1.UPF

K_POINTS gamma

CELL_PARAMETERS angstrom
40.06500000000000 0.00000000000000 0.00000000000000
0.00000000000000 40.06500000000000 0.00000000000000
0.00000000000000 0.00000000000000 40.06500000000000

ATOMIC_POSITIONS angstrom
H 12.1830000000 11.4440000000 17.3460000000 
H 10.6920000000 11.2260000000 16.5110000000 
H 16.7610000000 9.0390000000 17.6550000000 
H 15.8620000000 9.1460000000 16.6050000000 
H 15.6430000000 13.4390000000 15.2570000000 
H 14.0510000000 13.3920000000 14.9610000000 
H 12.0690000000 6.2380000000 10.7630000000 
H 12.1040000000 7.3030000000 11.9590000000 
H 12.7260000000 10.7740000000 20.1590000000 
H 12.6090000000 11.1410000000 21.7890000000 
H 6.2680000000 10.3350000000 16.9700000000 
H 7.1530000000 9.5210000000 15.9860000000 
H 12.8100000000 6.9210000000 15.6190000000 
H 13.7980000000 6.3840000000 16.6130000000 
H 8.6060000000 9.4820000000 17.7720000000 
H 10.1120000000 10.0870000000 17.9400000000 
H 9.8750000000 11.0670000000 14.3980000000 
H 9.7430000000 9.5930000000 14.8650000000 
H 10.2070000000 9.9600000000 12.4390000000 
H 9.9120000000 8.3670000000 12.3930000000 
H 11.3930000000 7.7990000000 14.3320000000 
H 12.1870000000 8.9300000000 13.3780000000 
H 8.0000000000 9.5840000000 13.3820000000 
H 7.0480000000 8.2670000000 14.0180000000 
H 13.1630000000 10.7730000000 14.8030000000 
H 14.3370000000 9.9000000000 14.2300000000 
H 15.5430000000 8.6210000000 14.0030000000 
H 14.8790000000 7.8210000000 15.1530000000 
H 10.5960000000 8.7650000000 19.2250000000 
H 11.6740000000 9.2290000000 20.4190000000 
H 14.4800000000 10.6650000000 17.8270000000 
H 14.3280000000 11.8330000000 16.7720000000 
H 11.9700000000 14.4760000000 15.8430000000 
H 12.4290000000 15.7580000000 14.9850000000 
H 14.0450000000 7.7740000000 12.2930000000 
H 14.6570000000 9.1120000000 11.5300000000 
H 11.4210000000 12.3360000000 12.0190000000 
H 12.2100000000 10.9600000000 12.5810000000 
H 12.1310000000 7.4010000000 18.7430000000 
H 12.8220000000 5.9130000000 18.9250000000 
H 10.2090000000 14.6600000000 17.5180000000 
H 10.9450000000 13.2320000000 17.1650000000 
H 10.2400000000 7.8590000000 16.7710000000 
H 11.4930000000 6.9870000000 16.8550000000 
O 11.1340000000 11.4580000000 17.4070000000 
O 15.9350000000 9.5860000000 17.5170000000 
O 14.8380000000 12.8630000000 15.3830000000 
O 12.5690000000 7.0030000000 11.0960000000 
O 12.5330000000 10.4130000000 21.0940000000 
O 7.0750000000 9.7690000000 16.9270000000 
O 13.7990000000 6.7400000000 15.7060000000 
O 9.6330000000 9.2430000000 17.8720000000 
O 9.8950000000 10.5460000000 15.2120000000 
O 9.3930000000 9.2890000000 12.3820000000 
O 11.6290000000 8.0640000000 13.3130000000 
O 7.3520000000 9.2320000000 14.1450000000 
O 13.3100000000 10.1240000000 14.0190000000 
O 15.5520000000 8.5770000000 15.0210000000 
O 11.3740000000 8.4380000000 19.8520000000 
O 13.8690000000 11.4100000000 17.5360000000 
O 12.6440000000 14.7930000000 15.1270000000 
O 14.7940000000 8.4510000000 12.3110000000 
O 11.3370000000 11.3730000000 12.3580000000 
O 12.4950000000 6.5660000000 18.2380000000 
O 10.8700000000 14.1980000000 16.8590000000 
O 10.9020000000 7.4280000000 16.1700000000 

