&CONTROL
   calculation      = 'scf'
   tstress          = .true.
   tprnfor          = .true.
   outdir           = './131'
   disk_io          = 'none'
   pseudo_dir       = '/share/pfaendtnergroup/rverma7/QE_PP'
/
&SYSTEM
   ecutwfc          = 30
   input_dft        = 'PBE'
   ntyp             = 2
   nat              = 66
   ibrav            = 0
/
&ELECTRONS
   electron_maxstep = 1000
   mixing_beta      = 0.5
/
&IONS
/
&CELL
/

ATOMIC_SPECIES
H 1.008 H.pbe-rrkjus_psl.1.0.0.UPF
O 15.999 O.pbe-n-kjpaw_psl.0.1.UPF

K_POINTS gamma

CELL_PARAMETERS angstrom
40.06500000000000 0.00000000000000 0.00000000000000
0.00000000000000 40.06500000000000 0.00000000000000
0.00000000000000 0.00000000000000 40.06500000000000

ATOMIC_POSITIONS angstrom
H 8.7630000000 13.9500000000 13.3140000000 
H 7.1130000000 13.6530000000 13.2020000000 
H 14.1520000000 12.1910000000 18.5050000000 
H 14.2480000000 12.6290000000 16.8650000000 
H 11.1390000000 9.6840000000 18.4240000000 
H 12.0280000000 10.5390000000 19.4370000000 
H 14.7910000000 10.2350000000 11.1940000000 
H 13.7900000000 11.2910000000 11.3360000000 
H 8.3310000000 9.9040000000 17.9930000000 
H 9.5250000000 10.7480000000 17.2360000000 
H 13.8360000000 7.3380000000 18.2480000000 
H 12.5610000000 6.9930000000 19.1020000000 
H 11.8330000000 9.2100000000 16.3180000000 
H 11.3410000000 10.6730000000 16.5180000000 
H 10.2240000000 12.4560000000 15.9520000000 
H 11.7600000000 12.8680000000 16.1950000000 
H 15.9790000000 7.4970000000 18.4660000000 
H 15.1360000000 8.5990000000 17.5600000000 
H 13.0600000000 8.3480000000 11.0050000000 
H 12.5400000000 9.2230000000 9.6600000000 
H 16.4180000000 11.7930000000 13.7100000000 
H 15.1770000000 11.0520000000 13.2870000000 
H 12.6980000000 11.6390000000 14.4180000000 
H 14.2100000000 12.0970000000 14.6130000000 
H 11.2230000000 6.4550000000 17.7400000000 
H 10.5210000000 5.1380000000 17.7640000000 
H 10.5050000000 10.9890000000 14.1010000000 
H 11.3220000000 9.9300000000 13.1480000000 
H 11.9150000000 7.2470000000 12.3360000000 
H 12.2530000000 5.9910000000 11.3570000000 
H 12.0150000000 12.9980000000 19.6770000000 
H 11.7740000000 12.3380000000 18.1220000000 
H 8.4600000000 11.8220000000 14.1830000000 
H 8.6900000000 11.0480000000 15.6770000000 
H 9.5050000000 7.2250000000 18.9660000000 
H 9.8420000000 8.7310000000 19.7680000000 
H 15.2070000000 10.4000000000 17.0220000000 
H 15.5630000000 10.1660000000 15.4250000000 
H 9.5820000000 6.8380000000 15.8860000000 
H 8.1990000000 6.6850000000 15.2200000000 
H 11.7060000000 8.3670000000 14.1420000000 
H 10.1550000000 7.7250000000 13.9870000000 
H 12.9010000000 7.5240000000 16.3980000000 
H 13.7210000000 8.7640000000 15.7640000000 
O 7.9870000000 13.3250000000 13.5760000000 
O 14.6720000000 12.0710000000 17.5860000000 
O 11.3140000000 9.7380000000 19.4590000000 
O 14.7280000000 11.1260000000 11.6450000000 
O 8.5110000000 10.6580000000 17.3310000000 
O 12.9390000000 6.8490000000 18.1460000000 
O 11.1980000000 9.7500000000 16.8870000000 
O 10.9470000000 12.5390000000 16.7060000000 
O 15.1670000000 8.1560000000 18.4590000000 
O 13.2660000000 9.2150000000 10.4240000000 
O 15.5930000000 11.3600000000 14.1310000000 
O 13.2890000000 12.3600000000 14.9430000000 
O 10.3580000000 6.1000000000 17.6050000000 
O 11.4460000000 10.8220000000 13.7070000000 
O 12.4620000000 6.9690000000 11.5220000000 
O 12.4100000000 12.4750000000 18.9340000000 
O 9.2080000000 11.3070000000 14.8190000000 
O 9.1570000000 7.9850000000 19.4990000000 
O 15.2050000000 9.6990000000 16.2670000000 
O 9.1670000000 6.8770000000 14.9810000000 
O 10.9730000000 8.1000000000 13.4600000000 
O 12.8670000000 8.1880000000 15.5950000000 

