&CONTROL
   calculation      = 'scf'
   tstress          = .true.
   tprnfor          = .true.
   outdir           = './386'
   disk_io          = 'none'
   pseudo_dir       = '/share/pfaendtnergroup/rverma7/QE_PP'
/
&SYSTEM
   ecutwfc          = 30
   input_dft        = 'PBE'
   ntyp             = 2
   nat              = 66
   ibrav            = 0
/
&ELECTRONS
   electron_maxstep = 1000
   mixing_beta      = 0.5
/
&IONS
/
&CELL
/

ATOMIC_SPECIES
H 1.008 H.pbe-rrkjus_psl.1.0.0.UPF
O 15.999 O.pbe-n-kjpaw_psl.0.1.UPF

K_POINTS gamma

CELL_PARAMETERS angstrom
40.06500000000000 0.00000000000000 0.00000000000000
0.00000000000000 40.06500000000000 0.00000000000000
0.00000000000000 0.00000000000000 40.06500000000000

ATOMIC_POSITIONS angstrom
H 14.4770000000 11.9080000000 19.9470000000 
H 15.7180000000 12.8230000000 19.4650000000 
H 9.6460000000 10.5320000000 16.7370000000 
H 11.2210000000 10.0850000000 16.3650000000 
H 11.0400000000 7.8150000000 15.8750000000 
H 12.5010000000 8.2980000000 16.4000000000 
H 10.9970000000 12.3290000000 19.8150000000 
H 10.9950000000 11.3200000000 18.5370000000 
H 11.3840000000 12.3650000000 15.3780000000 
H 12.9930000000 12.5200000000 15.4710000000 
H 16.5580000000 11.8340000000 14.8170000000 
H 18.1150000000 12.2480000000 15.2530000000 
H 14.9290000000 11.5300000000 12.8880000000 
H 15.4400000000 10.1560000000 13.5490000000 
H 9.5040000000 6.3980000000 15.7930000000 
H 8.7230000000 5.0160000000 15.5990000000 
H 11.1970000000 8.4850000000 11.7930000000 
H 11.0320000000 9.4380000000 10.3400000000 
H 9.3770000000 9.5600000000 12.2080000000 
H 8.7360000000 8.4940000000 12.9850000000 
H 14.4200000000 12.5050000000 17.2310000000 
H 15.5680000000 12.2340000000 16.0220000000 
H 12.5730000000 11.4970000000 20.7190000000 
H 13.4450000000 10.2490000000 21.4390000000 
H 11.9200000000 8.8380000000 18.4890000000 
H 10.7410000000 9.2830000000 19.5170000000 
H 10.6090000000 6.7030000000 12.5980000000 
H 9.2530000000 6.3900000000 13.4920000000 
H 7.0180000000 10.2950000000 17.5630000000 
H 7.4400000000 10.1400000000 16.1070000000 
H 16.3030000000 10.3590000000 17.2880000000 
H 15.2660000000 10.8540000000 18.5310000000 
H 12.5440000000 11.7450000000 13.5050000000 
H 12.0250000000 10.8740000000 12.0930000000 
H 13.9210000000 7.4130000000 17.8190000000 
H 14.1130000000 9.1380000000 17.5330000000 
H 13.4270000000 9.8980000000 13.5310000000 
H 12.9110000000 8.5750000000 14.3620000000 
H 12.6440000000 7.1320000000 12.8410000000 
H 12.7690000000 6.4700000000 11.3490000000 
H 10.1570000000 7.8760000000 17.7510000000 
H 8.7300000000 8.1260000000 17.0540000000 
H 6.0810000000 10.3760000000 13.9380000000 
H 7.5430000000 9.9940000000 13.8520000000 
O 14.9420000000 12.2870000000 19.1340000000 
O 10.6140000000 10.8610000000 16.6480000000 
O 11.8440000000 8.4040000000 15.5600000000 
O 11.1090000000 11.3590000000 19.6290000000 
O 12.2310000000 12.5840000000 14.8160000000 
O 17.1930000000 12.1340000000 15.5660000000 
O 15.7300000000 11.0860000000 13.2910000000 
O 9.1790000000 5.7290000000 15.0740000000 
O 10.9950000000 9.4070000000 11.3820000000 
O 8.4920000000 9.3950000000 12.6560000000 
O 14.5420000000 12.3830000000 16.2100000000 
O 13.4840000000 11.1960000000 21.0190000000 
O 11.0160000000 8.5360000000 18.8740000000 
O 9.6560000000 6.9870000000 12.7620000000 
O 7.8400000000 10.0690000000 17.0600000000 
O 15.5340000000 10.0590000000 17.8780000000 
O 12.8580000000 11.1370000000 12.7490000000 
O 13.5100000000 8.3510000000 17.5710000000 
O 13.7380000000 8.9260000000 13.8210000000 
O 12.1960000000 7.0050000000 11.9800000000 
O 9.4510000000 7.4380000000 17.0960000000 
O 6.8470000000 10.2670000000 14.5520000000 

