&CONTROL
   calculation      = 'scf'
   tstress          = .true.
   tprnfor          = .true.
   outdir           = './23'
   disk_io          = 'none'
   pseudo_dir       = '/share/pfaendtnergroup/rverma7/QE_PP'
/
&SYSTEM
   ecutwfc          = 30
   input_dft        = 'PBE'
   ntyp             = 2
   nat              = 66
   ibrav            = 0
/
&ELECTRONS
   electron_maxstep = 1000
   mixing_beta      = 0.5
/
&IONS
/
&CELL
/

ATOMIC_SPECIES
H 1.008 H.pbe-rrkjus_psl.1.0.0.UPF
O 15.999 O.pbe-n-kjpaw_psl.0.1.UPF

K_POINTS gamma

CELL_PARAMETERS angstrom
40.06500000000000 0.00000000000000 0.00000000000000
0.00000000000000 40.06500000000000 0.00000000000000
0.00000000000000 0.00000000000000 40.06500000000000

ATOMIC_POSITIONS angstrom
H 13.4820000000 9.4210000000 17.3570000000 
H 13.3920000000 10.6910000000 16.3860000000 
H 13.1690000000 6.2090000000 16.5010000000 
H 14.3960000000 6.4960000000 15.4830000000 
H 12.2470000000 13.0320000000 20.4870000000 
H 11.8600000000 12.1250000000 19.1300000000 
H 12.8770000000 8.7060000000 9.5840000000 
H 12.9430000000 8.1640000000 11.2320000000 
H 6.2080000000 11.1520000000 19.0450000000 
H 6.9560000000 11.7670000000 17.6710000000 
H 9.3310000000 13.6780000000 13.8390000000 
H 10.7320000000 13.0590000000 14.2340000000 
H 11.1860000000 6.4810000000 15.0320000000 
H 10.7680000000 6.1660000000 16.4090000000 
H 10.2820000000 11.2730000000 14.9670000000 
H 11.3540000000 10.2410000000 15.7250000000 
H 13.9180000000 13.6790000000 16.2810000000 
H 14.9280000000 14.1580000000 15.1060000000 
H 14.9000000000 10.9700000000 14.3980000000 
H 13.6960000000 9.8410000000 13.9840000000 
H 12.0210000000 8.1960000000 13.3070000000 
H 13.3710000000 7.3340000000 13.3470000000 
H 12.9090000000 11.9290000000 13.6310000000 
H 12.8160000000 13.3300000000 14.2580000000 
H 15.5010000000 14.0980000000 18.3480000000 
H 14.1220000000 13.3650000000 18.7950000000 
H 13.3920000000 5.1810000000 13.1120000000 
H 12.7070000000 5.5960000000 14.6040000000 
H 8.6050000000 9.9250000000 16.5730000000 
H 7.6530000000 9.6480000000 17.7630000000 
H 14.8360000000 7.8400000000 17.2330000000 
H 15.6230000000 8.1270000000 18.4740000000 
H 11.5990000000 10.6820000000 18.0090000000 
H 10.2520000000 10.0300000000 18.3730000000 
H 11.9700000000 5.5810000000 11.1500000000 
H 13.3390000000 5.2480000000 10.2320000000 
H 15.4070000000 11.8780000000 17.2740000000 
H 15.5070000000 10.2470000000 17.2150000000 
H 9.0900000000 7.8620000000 17.4040000000 
H 9.4330000000 6.5550000000 18.4020000000 
H 9.0120000000 13.1550000000 16.6660000000 
H 9.3490000000 12.4390000000 18.0870000000 
H 10.3790000000 8.8690000000 14.5980000000 
H 9.6060000000 7.6870000000 13.8800000000 
O 12.8110000000 10.1220000000 17.0090000000 
O 14.0910000000 6.6350000000 16.4260000000 
O 12.5010000000 12.7850000000 19.5210000000 
O 12.7210000000 7.9880000000 10.2500000000 
O 6.5420000000 10.9390000000 18.1150000000 
O 9.7420000000 13.0310000000 14.5090000000 
O 11.5980000000 6.0180000000 15.8420000000 
O 10.4380000000 10.2620000000 15.1210000000 
O 13.9410000000 14.1040000000 15.3380000000 
O 13.9490000000 10.8010000000 14.0520000000 
O 13.0080000000 8.2110000000 12.9980000000 
O 12.1680000000 12.7170000000 13.7500000000 
O 14.7160000000 13.6040000000 17.9400000000 
O 13.4450000000 5.8460000000 13.9420000000 
O 8.4640000000 9.2520000000 17.3080000000 
O 15.0270000000 8.5960000000 17.8580000000 
O 10.7900000000 10.8180000000 18.6070000000 
O 12.8370000000 5.0700000000 11.1230000000 
O 15.3690000000 11.0650000000 16.5890000000 
O 9.4660000000 6.9270000000 17.4380000000 
O 8.6740000000 12.9320000000 17.5430000000 
O 10.5160000000 7.9610000000 14.0750000000 

