&CONTROL
   calculation      = 'scf'
   tstress          = .true.
   tprnfor          = .true.
   outdir           = './50'
   disk_io          = 'none'
   pseudo_dir       = '/share/pfaendtnergroup/rverma7/QE_PP'
/
&SYSTEM
   ecutwfc          = 30
   input_dft        = 'PBE'
   ntyp             = 2
   nat              = 66
   ibrav            = 0
/
&ELECTRONS
   electron_maxstep = 1000
   mixing_beta      = 0.5
/
&IONS
/
&CELL
/

ATOMIC_SPECIES
H 1.008 H.pbe-rrkjus_psl.1.0.0.UPF
O 15.999 O.pbe-n-kjpaw_psl.0.1.UPF

K_POINTS gamma

CELL_PARAMETERS angstrom
40.06500000000000 0.00000000000000 0.00000000000000
0.00000000000000 40.06500000000000 0.00000000000000
0.00000000000000 0.00000000000000 40.06500000000000

ATOMIC_POSITIONS angstrom
H 14.2470000000 10.9050000000 10.5290000000 
H 13.0190000000 10.3780000000 9.5770000000 
H 16.9080000000 10.8760000000 14.2240000000 
H 15.4050000000 10.9950000000 14.7240000000 
H 10.3400000000 13.2740000000 20.8580000000 
H 10.7290000000 11.6380000000 21.0320000000 
H 13.6240000000 6.9490000000 11.5420000000 
H 12.7940000000 7.6580000000 12.6310000000 
H 8.8660000000 9.8480000000 19.5760000000 
H 9.2620000000 11.3260000000 19.1440000000 
H 8.4110000000 7.5820000000 19.7870000000 
H 9.8810000000 8.0570000000 19.7530000000 
H 12.1400000000 9.1960000000 14.1840000000 
H 12.6800000000 8.4240000000 15.5020000000 
H 11.4360000000 9.3090000000 8.1000000000 
H 10.6940000000 10.1990000000 9.2880000000 
H 12.1760000000 13.1870000000 17.4420000000 
H 11.5600000000 12.7720000000 18.9650000000 
H 9.1730000000 10.0840000000 17.3530000000 
H 10.4170000000 9.5430000000 16.3660000000 
H 13.4920000000 11.8350000000 18.7070000000 
H 14.2680000000 11.1780000000 17.5550000000 
H 13.1120000000 7.3480000000 17.3940000000 
H 12.9710000000 6.2560000000 16.1930000000 
H 9.7670000000 9.5830000000 21.7200000000 
H 11.1810000000 9.6320000000 22.4450000000 
H 8.4980000000 8.8420000000 11.2550000000 
H 8.8760000000 9.7920000000 12.6080000000 
H 8.8710000000 9.7810000000 14.6610000000 
H 7.3040000000 10.2820000000 14.4420000000 
H 15.4900000000 11.1260000000 12.2110000000 
H 15.3620000000 12.6800000000 11.9850000000 
H 10.4760000000 12.9710000000 15.0510000000 
H 10.6520000000 11.7250000000 16.0660000000 
H 13.5370000000 5.8740000000 14.2170000000 
H 14.4480000000 4.5950000000 14.6620000000 
H 13.4650000000 10.7130000000 15.2600000000 
H 13.0870000000 12.2540000000 15.6350000000 
H 10.9180000000 9.1370000000 11.9730000000 
H 12.4770000000 9.7460000000 11.9150000000 
H 14.7290000000 7.8850000000 19.3360000000 
H 14.0500000000 9.2150000000 18.5810000000 
H 11.4670000000 7.3800000000 17.7110000000 
H 11.9870000000 8.3290000000 18.9170000000 
O 13.5570000000 10.1570000000 10.4160000000 
O 15.9720000000 11.0380000000 13.9370000000 
O 10.5470000000 12.4520000000 20.3680000000 
O 13.3860000000 6.8420000000 12.5430000000 
O 8.7760000000 10.5320000000 18.8030000000 
O 9.0780000000 8.1550000000 20.3830000000 
O 12.4690000000 9.4050000000 15.1150000000 
O 11.5300000000 10.0500000000 8.7270000000 
O 12.3950000000 12.9080000000 18.3930000000 
O 9.5540000000 10.0750000000 16.3600000000 
O 14.2030000000 11.0140000000 18.5880000000 
O 12.5690000000 7.1240000000 16.5320000000 
O 10.5650000000 10.2140000000 21.8870000000 
O 9.2270000000 9.4010000000 11.7200000000 
O 8.2250000000 10.1580000000 13.9950000000 
O 15.3910000000 11.8060000000 11.4770000000 
O 10.9870000000 12.6240000000 15.8900000000 
O 13.6900000000 5.1830000000 14.9620000000 
O 13.8180000000 11.5960000000 15.7710000000 
O 11.8820000000 9.0090000000 12.3700000000 
O 13.9930000000 8.1880000000 18.6810000000 
O 11.1680000000 7.8500000000 18.5830000000 

