&CONTROL
   calculation      = 'scf'
   tstress          = .true.
   tprnfor          = .true.
   outdir           = './424'
   disk_io          = 'none'
   pseudo_dir       = '/share/pfaendtnergroup/rverma7/QE_PP'
/
&SYSTEM
   ecutwfc          = 30
   input_dft        = 'PBE'
   ntyp             = 2
   nat              = 66
   ibrav            = 0
/
&ELECTRONS
   electron_maxstep = 1000
   mixing_beta      = 0.5
/
&IONS
/
&CELL
/

ATOMIC_SPECIES
H 1.008 H.pbe-rrkjus_psl.1.0.0.UPF
O 15.999 O.pbe-n-kjpaw_psl.0.1.UPF

K_POINTS gamma

CELL_PARAMETERS angstrom
40.06500000000000 0.00000000000000 0.00000000000000
0.00000000000000 40.06500000000000 0.00000000000000
0.00000000000000 0.00000000000000 40.06500000000000

ATOMIC_POSITIONS angstrom
H 14.5110000000 10.5880000000 16.4870000000 
H 15.1580000000 9.6710000000 15.2850000000 
H 8.9740000000 9.0830000000 13.0480000000 
H 7.8570000000 8.2330000000 12.5600000000 
H 16.8020000000 10.3550000000 13.2720000000 
H 15.2840000000 10.8370000000 13.0330000000 
H 8.3930000000 6.9970000000 19.4920000000 
H 9.6670000000 7.6690000000 20.3050000000 
H 9.9520000000 11.9810000000 14.5490000000 
H 8.4570000000 11.8700000000 15.1610000000 
H 12.8670000000 13.0700000000 14.3880000000 
H 13.0970000000 14.6620000000 14.6540000000 
H 10.4080000000 10.4200000000 13.1230000000 
H 9.1680000000 11.1400000000 12.2660000000 
H 9.5070000000 9.9200000000 19.2590000000 
H 10.5360000000 10.5970000000 20.3150000000 
H 14.8650000000 8.5370000000 13.1690000000 
H 14.6060000000 7.0180000000 12.7150000000 
H 7.4370000000 10.4520000000 13.5530000000 
H 6.1650000000 11.1300000000 14.3090000000 
H 11.4940000000 12.0560000000 12.8740000000 
H 12.8440000000 11.5650000000 12.2690000000 
H 12.3780000000 12.3150000000 20.4470000000 
H 11.3930000000 12.1210000000 19.1220000000 
H 11.8320000000 6.9270000000 18.0820000000 
H 10.2950000000 7.1170000000 18.7370000000 
H 11.3460000000 9.2360000000 16.6950000000 
H 12.7540000000 9.5580000000 15.9750000000 
H 12.1810000000 12.8170000000 16.9140000000 
H 10.5640000000 12.4850000000 16.8390000000 
H 11.5060000000 6.7070000000 16.2640000000 
H 13.1340000000 6.6100000000 16.4570000000 
H 13.2470000000 4.9050000000 13.3350000000 
H 12.8800000000 6.1860000000 14.2250000000 
H 12.6890000000 8.0560000000 21.7390000000 
H 12.1390000000 8.8530000000 20.4790000000 
H 14.3700000000 7.5070000000 18.6970000000 
H 14.1290000000 8.4510000000 17.3140000000 
H 11.2190000000 8.1280000000 13.2100000000 
H 10.8350000000 9.1840000000 14.3640000000 
H 14.5240000000 12.9020000000 16.0370000000 
H 15.9420000000 12.7870000000 16.8900000000 
H 14.4010000000 9.4190000000 11.5410000000 
H 14.3340000000 10.7280000000 10.4590000000 
O 14.5480000000 9.6070000000 16.1600000000 
O 8.0530000000 9.2000000000 12.5230000000 
O 15.9400000000 10.3670000000 13.6860000000 
O 9.3380000000 6.8100000000 19.8340000000 
O 9.4780000000 12.0380000000 15.4110000000 
O 13.3540000000 13.7470000000 15.0260000000 
O 10.0350000000 11.3210000000 12.7570000000 
O 9.9100000000 9.7890000000 20.1890000000 
O 14.9410000000 7.8880000000 12.3430000000 
O 7.1130000000 11.3450000000 14.0520000000 
O 12.4840000000 12.1920000000 12.9370000000 
O 11.4980000000 11.8770000000 20.1200000000 
O 10.9640000000 7.3720000000 17.9250000000 
O 11.7570000000 9.6130000000 15.8270000000 
O 11.4190000000 12.4770000000 17.4280000000 
O 12.3550000000 6.3680000000 15.7860000000 
O 13.3450000000 5.9210000000 13.3610000000 
O 12.9540000000 8.5990000000 20.9730000000 
O 13.8370000000 7.6110000000 17.8630000000 
O 10.4760000000 8.7480000000 13.4870000000 
O 15.1080000000 12.2990000000 16.5460000000 
O 14.0250000000 10.3480000000 11.3540000000 

