&CONTROL
   calculation      = 'scf'
   tstress          = .true.
   tprnfor          = .true.
   outdir           = './336'
   disk_io          = 'none'
   pseudo_dir       = '/share/pfaendtnergroup/rverma7/QE_PP'
/
&SYSTEM
   ecutwfc          = 30
   input_dft        = 'PBE'
   ntyp             = 2
   nat              = 66
   ibrav            = 0
/
&ELECTRONS
   electron_maxstep = 1000
   mixing_beta      = 0.5
/
&IONS
/
&CELL
/

ATOMIC_SPECIES
H 1.008 H.pbe-rrkjus_psl.1.0.0.UPF
O 15.999 O.pbe-n-kjpaw_psl.0.1.UPF

K_POINTS gamma

CELL_PARAMETERS angstrom
40.06500000000000 0.00000000000000 0.00000000000000
0.00000000000000 40.06500000000000 0.00000000000000
0.00000000000000 0.00000000000000 40.06500000000000

ATOMIC_POSITIONS angstrom
H 10.6320000000 12.5140000000 18.6090000000 
H 9.5980000000 11.5350000000 17.9230000000 
H 11.7560000000 8.2740000000 19.2730000000 
H 10.8010000000 6.9290000000 19.3420000000 
H 9.9080000000 8.0900000000 11.5560000000 
H 9.6860000000 9.6310000000 10.8420000000 
H 15.5850000000 10.3780000000 18.1830000000 
H 15.7880000000 8.7210000000 18.4980000000 
H 10.4200000000 11.9230000000 14.4390000000 
H 9.6360000000 13.2200000000 14.7870000000 
H 10.2740000000 7.5560000000 13.3860000000 
H 11.4820000000 7.4370000000 14.5100000000 
H 13.2680000000 9.1940000000 9.7410000000 
H 12.0440000000 9.0360000000 10.6760000000 
H 13.9020000000 6.0370000000 12.2270000000 
H 12.7740000000 6.7490000000 13.2540000000 
H 12.9380000000 7.1630000000 15.8490000000 
H 11.7600000000 7.2560000000 16.9720000000 
H 17.2400000000 7.4450000000 17.0290000000 
H 15.6020000000 7.2570000000 16.8060000000 
H 9.8040000000 15.0390000000 16.5070000000 
H 10.0770000000 13.5020000000 16.5590000000 
H 14.1740000000 12.5160000000 17.1020000000 
H 15.0740000000 11.9520000000 15.8930000000 
H 13.1750000000 9.8000000000 19.3510000000 
H 12.9910000000 9.3300000000 20.8790000000 
H 8.3350000000 10.7460000000 14.5450000000 
H 7.8610000000 9.9860000000 15.8550000000 
H 7.8360000000 7.2990000000 13.2550000000 
H 8.3940000000 8.6600000000 13.8420000000 
H 10.4890000000 9.0100000000 17.9270000000 
H 10.6520000000 10.1100000000 19.1340000000 
H 12.1600000000 10.7440000000 14.7260000000 
H 11.2230000000 10.4020000000 15.9270000000 
H 12.9660000000 9.8120000000 12.6220000000 
H 12.0760000000 8.9680000000 13.5620000000 
H 9.5040000000 11.8630000000 12.6030000000 
H 9.5390000000 12.3640000000 11.0900000000 
H 14.4690000000 6.9360000000 14.5010000000 
H 14.7320000000 8.4150000000 15.2410000000 
H 12.1140000000 12.4090000000 16.5230000000 
H 12.0310000000 13.9660000000 16.6310000000 
H 15.2250000000 10.1290000000 20.5770000000 
H 14.9710000000 10.9500000000 22.0900000000 
O 9.7870000000 12.5140000000 18.0970000000 
O 11.4380000000 7.4050000000 18.8150000000 
O 10.1030000000 8.6680000000 10.7470000000 
O 15.5320000000 9.6600000000 18.8920000000 
O 9.4890000000 12.3340000000 14.3560000000 
O 11.3420000000 7.5670000000 13.4430000000 
O 12.9310000000 9.5100000000 10.6610000000 
O 13.7400000000 6.2900000000 13.1850000000 
O 11.8850000000 7.3010000000 15.9310000000 
O 16.3620000000 7.4930000000 17.4970000000 
O 10.2530000000 14.3200000000 16.0150000000 
O 15.0300000000 12.0640000000 16.8900000000 
O 12.4700000000 9.4540000000 19.9840000000 
O 8.0170000000 9.8450000000 14.8510000000 
O 8.6620000000 7.8570000000 13.3000000000 
O 10.0950000000 9.8240000000 18.3140000000 
O 11.6000000000 11.2040000000 15.4430000000 
O 12.6900000000 9.8140000000 13.5900000000 
O 9.7470000000 11.5630000000 11.6310000000 
O 14.6680000000 7.4230000000 15.3680000000 
O 12.5520000000 13.2060000000 16.9750000000 
O 14.6640000000 10.2110000000 21.4960000000 

