&CONTROL
   calculation      = 'scf'
   tstress          = .true.
   tprnfor          = .true.
   outdir           = './93'
   disk_io          = 'none'
   pseudo_dir       = '/share/pfaendtnergroup/rverma7/QE_PP'
/
&SYSTEM
   ecutwfc          = 30
   input_dft        = 'PBE'
   ntyp             = 2
   nat              = 66
   ibrav            = 0
/
&ELECTRONS
   electron_maxstep = 1000
   mixing_beta      = 0.5
/
&IONS
/
&CELL
/

ATOMIC_SPECIES
H 1.008 H.pbe-rrkjus_psl.1.0.0.UPF
O 15.999 O.pbe-n-kjpaw_psl.0.1.UPF

K_POINTS gamma

CELL_PARAMETERS angstrom
40.06500000000000 0.00000000000000 0.00000000000000
0.00000000000000 40.06500000000000 0.00000000000000
0.00000000000000 0.00000000000000 40.06500000000000

ATOMIC_POSITIONS angstrom
H 11.1690000000 10.0570000000 12.4450000000 
H 9.5500000000 10.2570000000 12.3480000000 
H 18.7150000000 7.5690000000 15.3320000000 
H 17.3000000000 7.4440000000 16.1790000000 
H 9.2020000000 14.2650000000 16.3070000000 
H 8.0040000000 15.2100000000 15.7040000000 
H 16.4190000000 6.9580000000 14.4810000000 
H 16.0290000000 5.5390000000 13.7270000000 
H 8.8090000000 8.8910000000 15.7930000000 
H 8.4420000000 9.7200000000 17.1140000000 
H 9.7660000000 10.6040000000 18.6330000000 
H 10.2750000000 11.1180000000 17.1380000000 
H 14.8140000000 6.7780000000 16.7490000000 
H 14.6670000000 6.0550000000 15.3320000000 
H 14.3340000000 9.4390000000 14.9500000000 
H 13.7570000000 10.6390000000 15.7660000000 
H 8.3780000000 9.0130000000 19.8130000000 
H 9.3250000000 8.0380000000 19.0270000000 
H 13.1130000000 10.5600000000 12.6760000000 
H 12.4870000000 11.8750000000 13.4300000000 
H 12.6720000000 6.4080000000 17.0890000000 
H 12.0200000000 7.7410000000 17.5840000000 
H 11.4050000000 11.5410000000 14.9020000000 
H 12.5150000000 12.6200000000 15.5960000000 
H 10.7280000000 13.0980000000 17.4090000000 
H 11.6110000000 14.4110000000 16.8990000000 
H 12.4480000000 15.0150000000 14.8450000000 
H 13.8690000000 14.9270000000 15.2980000000 
H 12.7890000000 7.9210000000 13.2210000000 
H 14.2960000000 7.4900000000 13.5020000000 
H 15.9290000000 8.4120000000 18.2170000000 
H 15.3820000000 8.7770000000 16.7550000000 
H 10.1960000000 14.9750000000 14.8030000000 
H 10.5170000000 15.8010000000 13.3350000000 
H 9.1770000000 12.5800000000 14.9200000000 
H 9.4000000000 11.0100000000 14.8430000000 
H 13.3820000000 9.5980000000 17.0660000000 
H 12.0780000000 10.1970000000 17.9010000000 
H 10.5070000000 6.3070000000 12.9590000000 
H 10.6910000000 7.9780000000 12.6150000000 
H 10.4340000000 7.2760000000 16.2160000000 
H 10.0710000000 7.3140000000 14.5690000000 
H 9.7740000000 5.5270000000 19.6950000000 
H 10.7280000000 6.4640000000 18.7110000000 
O 10.2390000000 9.5120000000 12.4930000000 
O 17.7630000000 7.2260000000 15.3640000000 
O 8.6340000000 14.4210000000 15.4490000000 
O 15.5900000000 6.4250000000 14.0230000000 
O 8.7400000000 9.8740000000 16.1420000000 
O 10.3870000000 11.3120000000 18.1390000000 
O 14.2170000000 6.0770000000 16.2570000000 
O 14.4370000000 9.8220000000 15.8880000000 
O 8.8640000000 8.8980000000 18.9610000000 
O 12.4050000000 11.2380000000 12.6250000000 
O 11.7790000000 6.7390000000 17.3690000000 
O 12.3760000000 11.6520000000 15.3420000000 
O 10.6930000000 14.1130000000 17.1480000000 
O 13.0560000000 14.3350000000 15.2600000000 
O 13.7160000000 8.3470000000 13.3610000000 
O 15.9050000000 8.0640000000 17.3050000000 
O 10.9370000000 15.4590000000 14.1950000000 
O 9.8000000000 11.8980000000 14.6240000000 
O 12.6700000000 9.3090000000 17.7790000000 
O 11.0790000000 7.1390000000 13.0940000000 
O 9.6460000000 7.3580000000 15.5680000000 
O 9.7820000000 6.3810000000 19.1460000000 

