&CONTROL
   calculation      = 'scf'
   tstress          = .true.
   tprnfor          = .true.
   outdir           = './340'
   disk_io          = 'none'
   pseudo_dir       = '/share/pfaendtnergroup/rverma7/QE_PP'
/
&SYSTEM
   ecutwfc          = 30
   input_dft        = 'PBE'
   ntyp             = 2
   nat              = 66
   ibrav            = 0
/
&ELECTRONS
   electron_maxstep = 1000
   mixing_beta      = 0.5
/
&IONS
/
&CELL
/

ATOMIC_SPECIES
H 1.008 H.pbe-rrkjus_psl.1.0.0.UPF
O 15.999 O.pbe-n-kjpaw_psl.0.1.UPF

K_POINTS gamma

CELL_PARAMETERS angstrom
40.06500000000000 0.00000000000000 0.00000000000000
0.00000000000000 40.06500000000000 0.00000000000000
0.00000000000000 0.00000000000000 40.06500000000000

ATOMIC_POSITIONS angstrom
H 8.4840000000 11.9260000000 17.7740000000 
H 10.1040000000 11.5800000000 18.2520000000 
H 8.8470000000 6.6980000000 19.0120000000 
H 10.0530000000 6.0110000000 18.0320000000 
H 9.7740000000 11.1020000000 11.7450000000 
H 11.1450000000 11.6990000000 12.3470000000 
H 13.6220000000 8.4420000000 18.5030000000 
H 12.3550000000 7.4700000000 18.1220000000 
H 11.7710000000 11.9260000000 16.6970000000 
H 11.7290000000 13.5120000000 16.4500000000 
H 14.3570000000 9.6000000000 10.8390000000 
H 15.8190000000 10.2540000000 10.6080000000 
H 11.6420000000 8.6440000000 10.1990000000 
H 11.7080000000 9.9630000000 10.9840000000 
H 12.5180000000 8.5480000000 12.3650000000 
H 13.4120000000 8.4650000000 13.6170000000 
H 8.3140000000 6.7150000000 15.2550000000 
H 8.8830000000 7.2160000000 16.5090000000 
H 12.4860000000 4.9080000000 17.4510000000 
H 11.7580000000 6.0940000000 16.6050000000 
H 9.8210000000 15.2900000000 16.1090000000 
H 9.7290000000 13.7460000000 16.6450000000 
H 15.3110000000 9.2080000000 19.1020000000 
H 16.0180000000 7.8060000000 18.7350000000 
H 11.7400000000 9.9230000000 18.5250000000 
H 11.9060000000 10.5600000000 19.8650000000 
H 9.8780000000 10.2590000000 14.9250000000 
H 9.0740000000 8.8910000000 14.7750000000 
H 9.2960000000 8.0250000000 11.8020000000 
H 9.1290000000 9.4080000000 12.7170000000 
H 12.1250000000 9.5630000000 15.4880000000 
H 11.8070000000 9.3230000000 16.9860000000 
H 15.1910000000 10.7680000000 15.5710000000 
H 14.1290000000 11.9350000000 16.1010000000 
H 13.4030000000 11.1690000000 13.7730000000 
H 14.3990000000 10.2830000000 12.7800000000 
H 12.1990000000 12.6350000000 14.8290000000 
H 12.3690000000 13.3630000000 13.3590000000 
H 12.2100000000 6.8730000000 14.3910000000 
H 10.9130000000 7.0730000000 15.1490000000 
H 14.6730000000 12.0660000000 18.9390000000 
H 15.1350000000 11.0940000000 17.8490000000 
H 13.9150000000 9.9360000000 21.6900000000 
H 14.1160000000 10.7350000000 20.2310000000 
O 9.4410000000 12.2550000000 17.7490000000 
O 9.1640000000 6.3720000000 18.0860000000 
O 10.7040000000 11.3780000000 11.5210000000 
O 12.6650000000 8.4400000000 18.0060000000 
O 12.4200000000 12.7400000000 16.4590000000 
O 15.1200000000 10.1320000000 11.2690000000 
O 12.2230000000 9.1570000000 10.8550000000 
O 12.7320000000 7.8920000000 13.0800000000 
O 8.9310000000 7.4410000000 15.5190000000 
O 11.9670000000 5.7400000000 17.5950000000 
O 10.2890000000 14.4160000000 16.1130000000 
O 15.1560000000 8.2200000000 18.9530000000 
O 11.2550000000 10.6660000000 19.0650000000 
O 9.1670000000 9.8380000000 14.3630000000 
O 8.9400000000 8.9460000000 11.8090000000 
O 11.4180000000 9.7970000000 16.1690000000 
O 14.9340000000 11.3520000000 16.3700000000 
O 13.9220000000 10.3060000000 13.6960000000 
O 12.2280000000 12.4800000000 13.7910000000 
O 11.7130000000 6.4620000000 15.1410000000 
O 15.1270000000 11.1680000000 18.8890000000 
O 13.4010000000 10.3620000000 20.9260000000 

