&CONTROL
   calculation      = 'scf'
   tstress          = .true.
   tprnfor          = .true.
   outdir           = './485'
   disk_io          = 'none'
   pseudo_dir       = '/share/pfaendtnergroup/rverma7/QE_PP'
/
&SYSTEM
   ecutwfc          = 30
   input_dft        = 'PBE'
   ntyp             = 2
   nat              = 66
   ibrav            = 0
/
&ELECTRONS
   electron_maxstep = 1000
   mixing_beta      = 0.5
/
&IONS
/
&CELL
/

ATOMIC_SPECIES
H 1.008 H.pbe-rrkjus_psl.1.0.0.UPF
O 15.999 O.pbe-n-kjpaw_psl.0.1.UPF

K_POINTS gamma

CELL_PARAMETERS angstrom
40.06500000000000 0.00000000000000 0.00000000000000
0.00000000000000 40.06500000000000 0.00000000000000
0.00000000000000 0.00000000000000 40.06500000000000

ATOMIC_POSITIONS angstrom
H 7.5580000000 5.5940000000 15.2390000000 
H 8.1380000000 6.9500000000 15.9810000000 
H 11.7390000000 11.0190000000 17.7660000000 
H 10.7110000000 12.1290000000 18.2740000000 
H 13.8510000000 11.4830000000 11.4340000000 
H 12.9810000000 10.3720000000 12.2850000000 
H 7.9480000000 9.3410000000 16.0130000000 
H 6.4310000000 8.8360000000 15.4830000000 
H 10.3490000000 6.7610000000 17.4730000000 
H 9.7450000000 5.9640000000 16.2950000000 
H 16.2210000000 12.8970000000 19.4860000000 
H 15.9030000000 12.2250000000 18.0010000000 
H 10.2170000000 6.0170000000 12.4600000000 
H 10.2150000000 7.7570000000 12.5630000000 
H 12.6430000000 12.0110000000 13.6220000000 
H 12.6560000000 12.8220000000 15.0470000000 
H 13.4150000000 12.5020000000 17.0390000000 
H 14.3930000000 13.5590000000 16.6250000000 
H 10.6070000000 9.6740000000 17.4870000000 
H 11.3910000000 8.4240000000 18.0620000000 
H 14.9800000000 11.1880000000 13.6550000000 
H 15.1440000000 10.4880000000 15.1530000000 
H 13.6800000000 9.8740000000 17.3890000000 
H 14.2030000000 10.7450000000 18.6870000000 
H 12.8200000000 4.1580000000 16.3140000000 
H 12.0690000000 5.5770000000 16.4280000000 
H 10.6940000000 14.4220000000 19.5430000000 
H 11.6290000000 14.0600000000 18.2470000000 
H 9.1970000000 11.1010000000 16.9700000000 
H 8.5770000000 11.3380000000 15.5570000000 
H 14.8730000000 8.4350000000 16.5010000000 
H 13.7080000000 8.9370000000 15.3570000000 
H 15.8640000000 12.2760000000 15.8980000000 
H 17.2070000000 13.2510000000 15.9590000000 
H 9.7240000000 9.9910000000 13.6240000000 
H 8.7620000000 8.7560000000 14.0950000000 
H 12.0460000000 10.0080000000 14.7910000000 
H 11.4750000000 8.4690000000 14.8180000000 
H 11.6620000000 8.0920000000 11.2720000000 
H 12.2700000000 8.6320000000 12.6700000000 
H 9.5500000000 12.1990000000 13.2260000000 
H 10.5020000000 11.7620000000 14.4670000000 
H 15.2830000000 6.4570000000 17.9750000000 
H 14.0320000000 6.1400000000 16.9230000000 
O 8.2260000000 5.9270000000 15.7260000000 
O 10.7790000000 11.4110000000 17.5500000000 
O 13.4800000000 11.2580000000 12.3020000000 
O 7.4070000000 8.5350000000 15.6910000000 
O 10.5900000000 6.0020000000 16.8840000000 
O 15.6090000000 12.2180000000 19.0380000000 
O 10.4740000000 6.8720000000 11.9930000000 
O 12.1580000000 12.1030000000 14.4990000000 
O 13.4050000000 13.3590000000 16.6030000000 
O 10.6600000000 8.6640000000 17.3800000000 
O 15.5490000000 11.1660000000 14.4720000000 
O 13.3710000000 10.5210000000 18.0770000000 
O 13.0430000000 5.1440000000 16.3410000000 
O 10.7930000000 13.7400000000 18.7710000000 
O 8.3490000000 10.9020000000 16.4360000000 
O 14.3790000000 9.2580000000 16.0890000000 
O 16.2680000000 12.9990000000 16.3790000000 
O 9.6330000000 8.9700000000 13.5970000000 
O 12.2050000000 9.0630000000 14.4400000000 
O 12.2450000000 8.8830000000 11.7000000000 
O 9.5750000000 11.5620000000 14.0300000000 
O 14.6170000000 6.8780000000 17.3720000000 

