&CONTROL
   calculation      = 'scf'
   tstress          = .true.
   tprnfor          = .true.
   outdir           = './267'
   disk_io          = 'none'
   pseudo_dir       = '/share/pfaendtnergroup/rverma7/QE_PP'
/
&SYSTEM
   ecutwfc          = 30
   input_dft        = 'PBE'
   ntyp             = 2
   nat              = 66
   ibrav            = 0
/
&ELECTRONS
   electron_maxstep = 1000
   mixing_beta      = 0.5
/
&IONS
/
&CELL
/

ATOMIC_SPECIES
H 1.008 H.pbe-rrkjus_psl.1.0.0.UPF
O 15.999 O.pbe-n-kjpaw_psl.0.1.UPF

K_POINTS gamma

CELL_PARAMETERS angstrom
40.06500000000000 0.00000000000000 0.00000000000000
0.00000000000000 40.06500000000000 0.00000000000000
0.00000000000000 0.00000000000000 40.06500000000000

ATOMIC_POSITIONS angstrom
H 14.4940000000 9.1750000000 18.4910000000 
H 13.5560000000 9.3530000000 19.8720000000 
H 11.1190000000 7.2750000000 17.8960000000 
H 12.3570000000 6.5910000000 17.2240000000 
H 9.5530000000 12.0830000000 13.8470000000 
H 8.8140000000 10.8090000000 14.4810000000 
H 12.5040000000 10.0080000000 14.4160000000 
H 13.8540000000 10.3410000000 15.1480000000 
H 9.2050000000 11.5610000000 16.5830000000 
H 8.8640000000 12.4750000000 17.8300000000 
H 14.0920000000 11.3640000000 18.7610000000 
H 12.7950000000 11.7010000000 17.7940000000 
H 12.8930000000 14.2170000000 14.5190000000 
H 11.5160000000 14.9420000000 13.9720000000 
H 10.1590000000 7.6970000000 11.0220000000 
H 10.2190000000 9.4090000000 11.2920000000 
H 15.3160000000 13.4790000000 14.6350000000 
H 16.6400000000 14.3800000000 14.3170000000 
H 14.2150000000 7.5550000000 15.7390000000 
H 12.6730000000 7.5240000000 15.4040000000 
H 6.9130000000 6.6250000000 16.1320000000 
H 8.3600000000 6.2000000000 15.9370000000 
H 16.7980000000 10.5200000000 12.8540000000 
H 16.4010000000 11.5470000000 13.9680000000 
H 10.8930000000 9.0400000000 18.5310000000 
H 9.8330000000 9.3670000000 17.4400000000 
H 13.5290000000 12.3020000000 15.0860000000 
H 14.1650000000 12.8360000000 16.5280000000 
H 10.4010000000 5.6460000000 17.0540000000 
H 9.9520000000 4.5800000000 15.8890000000 
H 10.8060000000 9.5910000000 20.9040000000 
H 11.2330000000 8.1030000000 20.4110000000 
H 11.7080000000 11.2020000000 11.4380000000 
H 11.0020000000 11.1130000000 10.0620000000 
H 15.7330000000 9.6940000000 14.9560000000 
H 15.7620000000 9.2580000000 16.5130000000 
H 12.8550000000 11.6530000000 13.0150000000 
H 12.7610000000 13.2030000000 12.6010000000 
H 11.5270000000 6.3520000000 19.5890000000 
H 10.7870000000 5.6790000000 20.9550000000 
H 8.2840000000 8.4560000000 14.5600000000 
H 8.8730000000 8.7270000000 13.0550000000 
H 11.1760000000 8.7430000000 16.0520000000 
H 10.4630000000 8.8410000000 14.5070000000 
O 14.3140000000 9.7470000000 19.3470000000 
O 11.5680000000 6.3220000000 17.9170000000 
O 9.1190000000 11.7430000000 14.7120000000 
O 13.1150000000 10.7820000000 14.5720000000 
O 9.0590000000 11.5470000000 17.5910000000 
O 13.6120000000 12.0730000000 18.1430000000 
O 12.3370000000 14.3900000000 13.6910000000 
O 9.8350000000 8.4500000000 11.5780000000 
O 16.2650000000 13.4590000000 14.3750000000 
O 13.3810000000 7.0230000000 15.9420000000 
O 7.6910000000 6.8680000000 15.5560000000 
O 16.7290000000 10.5560000000 13.8120000000 
O 10.6190000000 8.7730000000 17.6220000000 
O 14.0530000000 13.0900000000 15.5210000000 
O 9.5620000000 5.1990000000 16.5810000000 
O 11.2290000000 9.1470000000 20.0990000000 
O 10.9420000000 10.7110000000 10.9710000000 
O 15.2800000000 9.0980000000 15.6280000000 
O 12.8340000000 12.2500000000 12.2170000000 
O 11.4280000000 6.4680000000 20.6090000000 
O 8.6480000000 9.1880000000 13.9800000000 
O 11.3870000000 8.6620000000 15.0350000000 

