&CONTROL
   calculation      = 'scf'
   tstress          = .true.
   tprnfor          = .true.
   outdir           = './326'
   disk_io          = 'none'
   pseudo_dir       = '/share/pfaendtnergroup/rverma7/QE_PP'
/
&SYSTEM
   ecutwfc          = 30
   input_dft        = 'PBE'
   ntyp             = 2
   nat              = 66
   ibrav            = 0
/
&ELECTRONS
   electron_maxstep = 1000
   mixing_beta      = 0.5
/
&IONS
/
&CELL
/

ATOMIC_SPECIES
H 1.008 H.pbe-rrkjus_psl.1.0.0.UPF
O 15.999 O.pbe-n-kjpaw_psl.0.1.UPF

K_POINTS gamma

CELL_PARAMETERS angstrom
40.06500000000000 0.00000000000000 0.00000000000000
0.00000000000000 40.06500000000000 0.00000000000000
0.00000000000000 0.00000000000000 40.06500000000000

ATOMIC_POSITIONS angstrom
H 8.9650000000 12.0230000000 16.7300000000 
H 10.0240000000 12.9930000000 17.2410000000 
H 14.6570000000 11.4860000000 17.7670000000 
H 15.9800000000 12.3560000000 17.1220000000 
H 7.9150000000 9.4850000000 12.7380000000 
H 7.8230000000 8.7500000000 14.2810000000 
H 11.4320000000 12.4300000000 13.3080000000 
H 12.7620000000 11.5720000000 13.4580000000 
H 11.6930000000 9.2630000000 17.4790000000 
H 11.2810000000 9.7860000000 18.9920000000 
H 13.8000000000 5.3170000000 15.2100000000 
H 13.2980000000 6.2960000000 16.4190000000 
H 8.1760000000 7.8260000000 16.3640000000 
H 7.7690000000 9.3960000000 16.5080000000 
H 11.6320000000 7.4510000000 14.0610000000 
H 13.1380000000 7.1970000000 14.5080000000 
H 13.9070000000 13.5990000000 17.6210000000 
H 13.7500000000 15.0920000000 18.1990000000 
H 12.8420000000 10.2060000000 11.6170000000 
H 13.2210000000 9.3870000000 13.0090000000 
H 11.5300000000 11.9120000000 19.6550000000 
H 10.1650000000 11.6290000000 18.8550000000 
H 9.5550000000 12.0160000000 13.7560000000 
H 9.3970000000 13.4710000000 13.0360000000 
H 15.1270000000 9.3170000000 17.6670000000 
H 14.1450000000 9.2770000000 19.0800000000 
H 12.0620000000 7.1380000000 18.1960000000 
H 11.9780000000 5.6610000000 18.3360000000 
H 9.8240000000 5.9390000000 13.7930000000 
H 9.1600000000 7.3920000000 13.8830000000 
H 12.1130000000 14.0800000000 16.6090000000 
H 11.7020000000 13.1390000000 15.3280000000 
H 13.1050000000 9.7750000000 16.2050000000 
H 12.1810000000 10.7890000000 15.4800000000 
H 13.9130000000 7.4290000000 12.6310000000 
H 15.3660000000 6.8180000000 12.4780000000 
H 9.9800000000 7.7400000000 17.5440000000 
H 10.1690000000 6.9320000000 16.0400000000 
H 15.7600000000 8.7570000000 15.4010000000 
H 14.7910000000 7.7330000000 16.0130000000 
H 10.4800000000 10.5000000000 15.6980000000 
H 9.2720000000 9.7050000000 15.1290000000 
H 15.6110000000 8.9040000000 12.9210000000 
H 16.2250000000 10.2900000000 13.4650000000 
O 9.3690000000 12.3010000000 17.6050000000 
O 15.0720000000 12.4320000000 17.6530000000 
O 8.1270000000 8.5930000000 13.2830000000 
O 12.1390000000 12.1660000000 14.0030000000 
O 11.4530000000 8.8810000000 18.3900000000 
O 13.9500000000 6.2280000000 15.5670000000 
O 7.6070000000 8.6060000000 15.8910000000 
O 12.5490000000 7.7340000000 13.7670000000 
O 13.2620000000 14.3980000000 17.6050000000 
O 13.3700000000 10.3090000000 12.4710000000 
O 10.8020000000 11.3070000000 19.6240000000 
O 9.6650000000 12.4790000000 12.8670000000 
O 14.7160000000 9.8680000000 18.4670000000 
O 12.4370000000 6.2870000000 17.7590000000 
O 10.0010000000 6.8540000000 14.1850000000 
O 11.2960000000 13.7580000000 16.0690000000 
O 12.1410000000 10.1250000000 16.2570000000 
O 14.7580000000 7.4860000000 12.0770000000 
O 9.4680000000 7.1880000000 16.7970000000 
O 15.1410000000 8.6440000000 16.2080000000 
O 9.6050000000 10.6390000000 15.2710000000 
O 15.9500000000 9.4160000000 13.7450000000 

