&CONTROL
   calculation      = 'scf'
   tstress          = .true.
   tprnfor          = .true.
   outdir           = './120'
   disk_io          = 'none'
   pseudo_dir       = '/share/pfaendtnergroup/rverma7/QE_PP'
/
&SYSTEM
   ecutwfc          = 30
   input_dft        = 'PBE'
   ntyp             = 2
   nat              = 66
   ibrav            = 0
/
&ELECTRONS
   electron_maxstep = 1000
   mixing_beta      = 0.5
/
&IONS
/
&CELL
/

ATOMIC_SPECIES
H 1.008 H.pbe-rrkjus_psl.1.0.0.UPF
O 15.999 O.pbe-n-kjpaw_psl.0.1.UPF

K_POINTS gamma

CELL_PARAMETERS angstrom
40.06500000000000 0.00000000000000 0.00000000000000
0.00000000000000 40.06500000000000 0.00000000000000
0.00000000000000 0.00000000000000 40.06500000000000

ATOMIC_POSITIONS angstrom
H 10.1260000000 9.1500000000 20.7540000000 
H 9.0440000000 8.0950000000 20.4840000000 
H 10.5770000000 13.2100000000 11.5030000000 
H 10.4240000000 11.6550000000 12.1920000000 
H 14.0460000000 9.0280000000 18.1390000000 
H 14.2310000000 10.5550000000 17.9190000000 
H 11.9350000000 10.0220000000 11.8580000000 
H 12.3750000000 8.5850000000 11.6100000000 
H 10.8280000000 9.0590000000 17.3730000000 
H 11.8960000000 10.0510000000 18.1370000000 
H 16.4440000000 11.6920000000 13.9570000000 
H 16.3490000000 13.0460000000 14.6690000000 
H 14.4300000000 10.2210000000 14.2330000000 
H 13.4490000000 9.3210000000 13.4370000000 
H 10.6620000000 11.0960000000 16.0040000000 
H 10.0530000000 11.4740000000 14.5020000000 
H 14.6470000000 15.3370000000 13.7460000000 
H 14.3970000000 13.6940000000 13.7040000000 
H 10.8410000000 7.8930000000 13.1900000000 
H 10.6570000000 6.4400000000 12.2880000000 
H 15.2020000000 10.5450000000 11.8820000000 
H 14.5080000000 11.6450000000 12.9290000000 
H 9.7620000000 8.8990000000 14.7740000000 
H 8.3840000000 8.5690000000 15.4170000000 
H 16.2700000000 11.0400000000 16.1230000000 
H 16.8230000000 10.7320000000 17.6810000000 
H 8.2110000000 7.9330000000 17.8370000000 
H 9.0190000000 6.7770000000 16.9630000000 
H 11.4850000000 8.0500000000 15.7340000000 
H 12.3360000000 8.9990000000 14.7190000000 
H 9.0300000000 10.1230000000 11.9290000000 
H 9.0980000000 10.1290000000 13.4570000000 
H 8.0620000000 9.4390000000 19.0800000000 
H 6.6660000000 9.2720000000 19.3320000000 
H 9.1510000000 11.5720000000 19.4840000000 
H 10.0080000000 10.3280000000 18.6840000000 
H 12.3290000000 12.5310000000 13.1240000000 
H 12.5920000000 11.8320000000 14.5540000000 
H 12.1360000000 5.7260000000 19.9500000000 
H 10.9920000000 6.8780000000 20.2060000000 
H 12.9150000000 7.3830000000 16.9190000000 
H 11.6980000000 6.9720000000 17.9030000000 
H 15.7680000000 7.9940000000 17.1400000000 
H 14.7550000000 8.5750000000 16.1220000000 
O 9.9800000000 8.1610000000 20.7510000000 
O 11.0830000000 12.4450000000 11.9720000000 
O 13.6270000000 9.9360000000 18.4300000000 
O 12.7420000000 9.4540000000 11.9130000000 
O 10.9510000000 10.0230000000 17.7090000000 
O 16.4690000000 12.0600000000 14.8990000000 
O 13.8520000000 9.4150000000 14.3530000000 
O 10.5850000000 11.8190000000 15.2960000000 
O 15.0960000000 14.4190000000 13.7060000000 
O 10.8690000000 7.4450000000 12.2560000000 
O 15.3230000000 11.1750000000 12.6490000000 
O 8.7650000000 9.0290000000 14.6080000000 
O 16.3850000000 10.3160000000 16.8810000000 
O 8.6910000000 7.7060000000 16.9300000000 
O 11.3490000000 8.5200000000 14.7610000000 
O 9.4280000000 10.7030000000 12.6770000000 
O 7.3840000000 8.6630000000 19.1310000000 
O 9.2010000000 10.5690000000 19.3980000000 
O 13.1010000000 12.2230000000 13.7710000000 
O 11.3520000000 6.1750000000 19.4940000000 
O 11.9180000000 7.3840000000 17.0060000000 
O 14.7980000000 8.0510000000 16.9440000000 

