&CONTROL
   calculation      = 'scf'
   tstress          = .true.
   tprnfor          = .true.
   outdir           = './472'
   disk_io          = 'none'
   pseudo_dir       = '/share/pfaendtnergroup/rverma7/QE_PP'
/
&SYSTEM
   ecutwfc          = 30
   input_dft        = 'PBE'
   ntyp             = 2
   nat              = 66
   ibrav            = 0
/
&ELECTRONS
   electron_maxstep = 1000
   mixing_beta      = 0.5
/
&IONS
/
&CELL
/

ATOMIC_SPECIES
H 1.008 H.pbe-rrkjus_psl.1.0.0.UPF
O 15.999 O.pbe-n-kjpaw_psl.0.1.UPF

K_POINTS gamma

CELL_PARAMETERS angstrom
40.06500000000000 0.00000000000000 0.00000000000000
0.00000000000000 40.06500000000000 0.00000000000000
0.00000000000000 0.00000000000000 40.06500000000000

ATOMIC_POSITIONS angstrom
H 13.3830000000 7.6570000000 20.7000000000 
H 12.5620000000 7.8680000000 19.3400000000 
H 12.2350000000 14.1810000000 17.8840000000 
H 12.7710000000 12.6680000000 17.6280000000 
H 10.6300000000 7.7280000000 12.8150000000 
H 9.2460000000 7.5970000000 11.7460000000 
H 10.9280000000 9.7150000000 18.9810000000 
H 10.2150000000 8.4420000000 18.4220000000 
H 15.4210000000 10.5160000000 17.8260000000 
H 16.7890000000 10.4400000000 18.6820000000 
H 11.3750000000 15.4930000000 13.6830000000 
H 10.8610000000 14.2070000000 12.7810000000 
H 10.8480000000 6.6810000000 15.4860000000 
H 11.5710000000 5.2850000000 15.8050000000 
H 9.0440000000 10.3220000000 18.1500000000 
H 8.5010000000 10.2630000000 16.6050000000 
H 8.8720000000 11.7510000000 15.5550000000 
H 8.8290000000 10.8880000000 14.0280000000 
H 13.7460000000 12.2610000000 16.2130000000 
H 13.7510000000 10.7840000000 16.9380000000 
H 9.6580000000 9.7520000000 12.7980000000 
H 10.8960000000 10.5580000000 13.4950000000 
H 12.6880000000 11.7050000000 14.3680000000 
H 12.4110000000 13.3360000000 14.2890000000 
H 16.7720000000 6.9280000000 15.0460000000 
H 15.3410000000 6.6120000000 15.7520000000 
H 10.7280000000 13.2960000000 16.5830000000 
H 10.2230000000 13.7650000000 15.1690000000 
H 10.5290000000 11.7670000000 20.1570000000 
H 10.9860000000 12.0430000000 18.8260000000 
H 12.2710000000 9.0670000000 14.0430000000 
H 12.4520000000 9.6820000000 15.4060000000 
H 10.6570000000 12.7930000000 10.8820000000 
H 10.0940000000 12.3280000000 12.2500000000 
H 14.6640000000 7.1070000000 18.3060000000 
H 15.6100000000 8.2630000000 17.8540000000 
H 12.2800000000 8.9720000000 17.5550000000 
H 13.5460000000 8.2950000000 16.8220000000 
H 11.9080000000 6.9170000000 13.9100000000 
H 13.0180000000 6.7580000000 12.6470000000 
H 8.7800000000 8.1530000000 16.6310000000 
H 8.9160000000 8.0670000000 15.0320000000 
H 15.0830000000 6.3510000000 13.4570000000 
H 14.9300000000 5.4340000000 12.0570000000 
O 13.4150000000 7.4180000000 19.7350000000 
O 11.9330000000 13.2290000000 17.9960000000 
O 9.6320000000 7.9710000000 12.6410000000 
O 11.1920000000 8.7380000000 18.5860000000 
O 16.0640000000 9.8720000000 18.1940000000 
O 11.3120000000 14.4650000000 13.6860000000 
O 11.7790000000 6.2190000000 15.4500000000 
O 8.8270000000 9.7120000000 17.4180000000 
O 8.4270000000 10.9540000000 15.0400000000 
O 13.9370000000 11.7870000000 17.1160000000 
O 10.0320000000 10.6870000000 12.9840000000 
O 13.0670000000 12.6050000000 14.6670000000 
O 15.9030000000 6.4560000000 14.9180000000 
O 9.9590000000 13.1830000000 15.9020000000 
O 10.5270000000 11.2540000000 19.3140000000 
O 12.1970000000 9.9450000000 14.4540000000 
O 10.3090000000 13.1780000000 11.7310000000 
O 15.1640000000 7.4360000000 17.4650000000 
O 12.9850000000 9.0690000000 16.7870000000 
O 12.1750000000 7.2730000000 12.9780000000 
O 9.2800000000 7.6420000000 15.8770000000 
O 14.7830000000 6.3410000000 12.4210000000 

