&CONTROL
   calculation      = 'scf'
   tstress          = .true.
   tprnfor          = .true.
   outdir           = './489'
   disk_io          = 'none'
   pseudo_dir       = '/share/pfaendtnergroup/rverma7/QE_PP'
/
&SYSTEM
   ecutwfc          = 30
   input_dft        = 'PBE'
   ntyp             = 2
   nat              = 66
   ibrav            = 0
/
&ELECTRONS
   electron_maxstep = 1000
   mixing_beta      = 0.5
/
&IONS
/
&CELL
/

ATOMIC_SPECIES
H 1.008 H.pbe-rrkjus_psl.1.0.0.UPF
O 15.999 O.pbe-n-kjpaw_psl.0.1.UPF

K_POINTS gamma

CELL_PARAMETERS angstrom
40.06500000000000 0.00000000000000 0.00000000000000
0.00000000000000 40.06500000000000 0.00000000000000
0.00000000000000 0.00000000000000 40.06500000000000

ATOMIC_POSITIONS angstrom
H 7.9450000000 8.5150000000 14.0450000000 
H 8.1330000000 8.8570000000 15.6220000000 
H 9.0920000000 11.3220000000 16.0230000000 
H 8.8170000000 11.7620000000 17.4480000000 
H 16.0150000000 12.1790000000 12.8940000000 
H 14.9830000000 10.9670000000 12.9210000000 
H 7.7730000000 12.3220000000 14.2200000000 
H 6.3090000000 11.9670000000 13.5680000000 
H 10.9210000000 7.4030000000 15.8250000000 
H 9.6260000000 7.4150000000 15.0410000000 
H 16.3580000000 8.7990000000 20.3320000000 
H 15.4950000000 10.0880000000 19.8660000000 
H 10.8790000000 10.3720000000 10.9460000000 
H 11.3160000000 9.5630000000 12.1460000000 
H 13.9230000000 10.5580000000 15.5590000000 
H 12.6720000000 11.0930000000 16.4140000000 
H 12.3650000000 10.5310000000 18.7410000000 
H 13.5610000000 11.6480000000 18.3910000000 
H 9.7830000000 9.2840000000 17.0740000000 
H 11.0070000000 8.7540000000 17.8800000000 
H 15.7520000000 11.0990000000 15.0250000000 
H 15.7620000000 9.5910000000 15.7830000000 
H 12.7000000000 7.7820000000 18.5380000000 
H 13.4610000000 8.7120000000 19.6270000000 
H 11.2120000000 3.7800000000 15.8530000000 
H 10.8050000000 5.3860000000 15.7370000000 
H 10.7770000000 13.7740000000 18.1450000000 
H 11.1940000000 12.4330000000 17.5110000000 
H 9.2910000000 13.7860000000 15.6800000000 
H 9.8930000000 12.9070000000 14.5130000000 
H 14.2310000000 8.0930000000 14.7860000000 
H 14.5950000000 7.4100000000 16.3040000000 
H 15.5870000000 11.0100000000 17.4530000000 
H 16.3640000000 11.9750000000 18.6560000000 
H 9.6200000000 11.0650000000 13.2010000000 
H 8.1800000000 10.5400000000 12.8810000000 
H 12.4510000000 9.2020000000 14.6630000000 
H 11.9540000000 7.7850000000 14.3480000000 
H 13.3520000000 9.9750000000 11.7440000000 
H 14.0310000000 8.9370000000 12.8460000000 
H 11.6490000000 11.5590000000 13.0230000000 
H 11.8830000000 11.6210000000 14.6940000000 
H 12.7310000000 5.4570000000 18.8860000000 
H 12.0240000000 5.4470000000 17.4030000000 
O 8.0340000000 8.1400000000 14.9680000000 
O 8.8380000000 10.9160000000 16.9270000000 
O 15.4800000000 11.6470000000 13.5350000000 
O 7.1520000000 11.5630000000 13.8800000000 
O 10.5800000000 7.0110000000 14.9670000000 
O 15.3760000000 9.1540000000 20.1940000000 
O 11.6790000000 10.1960000000 11.4870000000 
O 12.9170000000 10.8340000000 15.4870000000 
O 12.6460000000 11.3530000000 18.1720000000 
O 10.5190000000 8.5850000000 17.0360000000 
O 15.7240000000 10.6190000000 16.0080000000 
O 12.6720000000 8.6990000000 18.8990000000 
O 11.2910000000 4.6280000000 16.3070000000 
O 10.4850000000 13.1710000000 17.4130000000 
O 9.0320000000 13.2870000000 14.8670000000 
O 14.9580000000 8.0550000000 15.5740000000 
O 15.4990000000 11.3640000000 18.4700000000 
O 9.1780000000 10.2290000000 12.9040000000 
O 12.7390000000 8.4000000000 14.1540000000 
O 14.2370000000 9.6680000000 12.1660000000 
O 11.2320000000 11.9280000000 13.8830000000 
O 12.5850000000 5.9690000000 18.0490000000 

