&CONTROL
   calculation      = 'scf'
   tstress          = .true.
   tprnfor          = .true.
   outdir           = './456'
   disk_io          = 'none'
   pseudo_dir       = '/share/pfaendtnergroup/rverma7/QE_PP'
/
&SYSTEM
   ecutwfc          = 30
   input_dft        = 'PBE'
   ntyp             = 2
   nat              = 66
   ibrav            = 0
/
&ELECTRONS
   electron_maxstep = 1000
   mixing_beta      = 0.5
/
&IONS
/
&CELL
/

ATOMIC_SPECIES
H 1.008 H.pbe-rrkjus_psl.1.0.0.UPF
O 15.999 O.pbe-n-kjpaw_psl.0.1.UPF

K_POINTS gamma

CELL_PARAMETERS angstrom
40.06500000000000 0.00000000000000 0.00000000000000
0.00000000000000 40.06500000000000 0.00000000000000
0.00000000000000 0.00000000000000 40.06500000000000

ATOMIC_POSITIONS angstrom
H 14.2970000000 12.2410000000 15.6660000000 
H 15.0620000000 11.3650000000 16.8580000000 
H 12.8190000000 9.3570000000 15.9200000000 
H 12.0020000000 10.4960000000 14.9460000000 
H 10.5560000000 5.3600000000 14.2060000000 
H 11.2420000000 6.8490000000 14.0330000000 
H 10.7480000000 11.1420000000 13.3170000000 
H 11.7680000000 12.3690000000 12.9310000000 
H 13.0160000000 10.6050000000 10.8000000000 
H 13.0810000000 11.0400000000 9.2100000000 
H 9.1670000000 6.5420000000 17.3430000000 
H 8.7840000000 7.8170000000 18.3970000000 
H 12.1450000000 6.3460000000 16.3420000000 
H 13.1270000000 7.4580000000 16.8290000000 
H 11.3160000000 12.6940000000 17.5340000000 
H 9.8680000000 12.9980000000 17.0500000000 
H 13.8280000000 10.7850000000 18.6430000000 
H 15.3230000000 11.1460000000 19.2420000000 
H 9.1230000000 9.9300000000 14.3230000000 
H 8.2650000000 10.2100000000 12.9350000000 
H 12.2250000000 7.5250000000 18.9120000000 
H 12.0240000000 6.5920000000 20.1550000000 
H 10.3800000000 9.6630000000 15.8440000000 
H 9.0810000000 8.7290000000 16.1830000000 
H 15.6470000000 11.1160000000 14.5580000000 
H 16.8240000000 11.1590000000 13.3790000000 
H 11.8050000000 10.3110000000 17.3620000000 
H 11.4560000000 9.9040000000 18.8240000000 
H 8.9570000000 11.1280000000 16.8080000000 
H 7.5750000000 11.8050000000 17.1820000000 
H 10.5370000000 8.8050000000 13.0040000000 
H 12.1670000000 8.4440000000 12.6600000000 
H 8.9710000000 8.7690000000 20.6730000000 
H 10.3060000000 8.2990000000 19.9990000000 
H 11.0440000000 13.6940000000 10.9700000000 
H 12.4950000000 12.8550000000 10.9990000000 
H 13.0270000000 10.5430000000 12.8880000000 
H 14.6140000000 9.9180000000 12.9200000000 
H 12.6290000000 5.4810000000 18.3380000000 
H 12.1340000000 3.9570000000 18.8030000000 
H 12.4450000000 13.2320000000 14.8990000000 
H 12.7000000000 14.1630000000 16.0250000000 
H 14.5610000000 9.1860000000 17.3050000000 
H 15.0900000000 8.7840000000 15.6800000000 
O 15.0220000000 11.5240000000 15.8570000000 
O 11.9350000000 9.8250000000 15.7270000000 
O 11.1330000000 6.0500000000 14.6740000000 
O 11.7390000000 11.4250000000 13.4220000000 
O 12.6910000000 11.2830000000 10.1120000000 
O 8.9470000000 7.5310000000 17.4070000000 
O 12.4910000000 6.7160000000 17.2010000000 
O 10.8550000000 13.2120000000 16.8760000000 
O 14.8520000000 10.8060000000 18.4410000000 
O 9.2140000000 10.0070000000 13.3130000000 
O 11.9900000000 7.5830000000 19.8980000000 
O 9.3600000000 9.6960000000 15.8700000000 
O 15.9970000000 10.6310000000 13.6530000000 
O 12.1380000000 10.4290000000 18.3230000000 
O 8.6170000000 11.9500000000 17.3200000000 
O 11.1850000000 8.0500000000 12.6980000000 
O 9.3350000000 8.4490000000 19.7950000000 
O 11.8450000000 13.5100000000 11.5370000000 
O 13.6330000000 9.8080000000 12.4210000000 
O 12.4380000000 4.8570000000 19.1320000000 
O 13.2390000000 13.5620000000 15.3950000000 
O 14.3540000000 8.6520000000 16.3910000000 

