&CONTROL
   calculation      = 'scf'
   tstress          = .true.
   tprnfor          = .true.
   outdir           = './213'
   disk_io          = 'none'
   pseudo_dir       = '/share/pfaendtnergroup/rverma7/QE_PP'
/
&SYSTEM
   ecutwfc          = 30
   input_dft        = 'PBE'
   ntyp             = 2
   nat              = 66
   ibrav            = 0
/
&ELECTRONS
   electron_maxstep = 1000
   mixing_beta      = 0.5
/
&IONS
/
&CELL
/

ATOMIC_SPECIES
H 1.008 H.pbe-rrkjus_psl.1.0.0.UPF
O 15.999 O.pbe-n-kjpaw_psl.0.1.UPF

K_POINTS gamma

CELL_PARAMETERS angstrom
40.06500000000000 0.00000000000000 0.00000000000000
0.00000000000000 40.06500000000000 0.00000000000000
0.00000000000000 0.00000000000000 40.06500000000000

ATOMIC_POSITIONS angstrom
H 9.8240000000 10.2370000000 17.4570000000 
H 9.9520000000 10.6330000000 15.8960000000 
H 12.8290000000 6.3130000000 16.6260000000 
H 11.2680000000 5.9870000000 17.0230000000 
H 14.7310000000 9.1910000000 18.8030000000 
H 13.4440000000 8.0200000000 18.9610000000 
H 13.8330000000 12.3920000000 12.3570000000 
H 13.4580000000 13.7770000000 12.9110000000 
H 7.2370000000 10.4330000000 16.7520000000 
H 5.7910000000 9.9370000000 17.1900000000 
H 9.0780000000 8.7630000000 15.9900000000 
H 8.2590000000 7.8090000000 15.0790000000 
H 12.2670000000 6.8250000000 14.6770000000 
H 12.5460000000 8.4770000000 14.8650000000 
H 11.1110000000 9.1740000000 19.1840000000 
H 10.8000000000 7.5630000000 18.9150000000 
H 16.0440000000 11.5230000000 14.7110000000 
H 15.3850000000 10.1520000000 14.3690000000 
H 13.5520000000 9.3680000000 17.0000000000 
H 14.2900000000 10.3480000000 15.8340000000 
H 13.7780000000 8.5310000000 13.4060000000 
H 14.7060000000 8.7160000000 12.2410000000 
H 16.8490000000 10.0340000000 20.1400000000 
H 15.8010000000 10.8250000000 19.0690000000 
H 6.4810000000 9.0040000000 15.1220000000 
H 5.5520000000 8.2540000000 13.9370000000 
H 7.4710000000 9.7080000000 12.8450000000 
H 7.3100000000 10.3520000000 11.4180000000 
H 13.1460000000 10.5960000000 12.5770000000 
H 11.6570000000 10.6780000000 11.8680000000 
H 15.4950000000 12.8150000000 13.5140000000 
H 17.0210000000 13.3120000000 13.2630000000 
H 9.5430000000 6.9550000000 16.9240000000 
H 9.1110000000 6.2700000000 18.4150000000 
H 15.6770000000 11.2050000000 16.7660000000 
H 15.8900000000 12.4040000000 17.7700000000 
H 9.7540000000 9.5940000000 11.9310000000 
H 10.7120000000 8.2370000000 11.8350000000 
H 9.9610000000 11.5480000000 19.3810000000 
H 11.4430000000 11.3630000000 18.8310000000 
H 11.5920000000 11.3520000000 13.8960000000 
H 12.2790000000 10.7470000000 15.2680000000 
H 13.8320000000 11.7100000000 18.3730000000 
H 12.7070000000 12.2640000000 17.3570000000 
O 9.3870000000 10.1590000000 16.5660000000 
O 11.9730000000 5.9630000000 16.2360000000 
O 14.2300000000 8.4120000000 18.3900000000 
O 14.3160000000 13.2670000000 12.7210000000 
O 6.4120000000 9.9830000000 16.3980000000 
O 8.9650000000 7.7820000000 15.7160000000 
O 12.6280000000 7.6800000000 14.2450000000 
O 11.4280000000 8.2650000000 19.3610000000 
O 15.5670000000 10.7180000000 15.1970000000 
O 13.3810000000 9.9440000000 16.1450000000 
O 14.3140000000 9.2080000000 12.9480000000 
O 15.9030000000 10.1220000000 19.8630000000 
O 6.4540000000 8.6420000000 14.1460000000 
O 8.0370000000 10.0260000000 12.0460000000 
O 12.4180000000 11.3040000000 12.2980000000 
O 16.4830000000 12.7010000000 13.8850000000 
O 9.9200000000 6.6450000000 17.8320000000 
O 15.7280000000 11.4390000000 17.7670000000 
O 10.7260000000 9.2530000000 11.6630000000 
O 10.5650000000 10.8590000000 18.9720000000 
O 11.3890000000 11.1800000000 14.8960000000 
O 12.8410000000 11.8930000000 18.2820000000 

