&CONTROL
   calculation      = 'scf'
   tstress          = .true.
   tprnfor          = .true.
   outdir           = './277'
   disk_io          = 'none'
   pseudo_dir       = '/share/pfaendtnergroup/rverma7/QE_PP'
/
&SYSTEM
   ecutwfc          = 30
   input_dft        = 'PBE'
   ntyp             = 2
   nat              = 66
   ibrav            = 0
/
&ELECTRONS
   electron_maxstep = 1000
   mixing_beta      = 0.5
/
&IONS
/
&CELL
/

ATOMIC_SPECIES
H 1.008 H.pbe-rrkjus_psl.1.0.0.UPF
O 15.999 O.pbe-n-kjpaw_psl.0.1.UPF

K_POINTS gamma

CELL_PARAMETERS angstrom
40.06500000000000 0.00000000000000 0.00000000000000
0.00000000000000 40.06500000000000 0.00000000000000
0.00000000000000 0.00000000000000 40.06500000000000

ATOMIC_POSITIONS angstrom
H 8.0090000000 5.6860000000 16.4230000000 
H 7.1950000000 6.8420000000 17.0660000000 
H 8.8470000000 9.4280000000 16.6950000000 
H 8.4620000000 10.7220000000 15.8550000000 
H 13.7940000000 11.0890000000 15.8370000000 
H 12.4400000000 11.8550000000 15.4030000000 
H 15.0730000000 8.3850000000 13.9640000000 
H 16.1130000000 7.9210000000 15.0650000000 
H 11.8120000000 12.1520000000 17.2210000000 
H 11.5960000000 13.1890000000 18.4390000000 
H 10.5310000000 7.5500000000 17.1330000000 
H 9.2150000000 7.2350000000 17.6970000000 
H 16.3960000000 11.4680000000 18.5860000000 
H 15.0550000000 10.5220000000 18.3440000000 
H 13.2370000000 15.0440000000 12.1160000000 
H 13.9200000000 14.1950000000 13.3720000000 
H 12.0150000000 10.2090000000 18.8910000000 
H 12.9310000000 10.4540000000 17.5540000000 
H 9.3500000000 8.6080000000 15.0410000000 
H 10.8230000000 7.9020000000 14.9940000000 
H 10.8260000000 10.8780000000 11.2240000000 
H 11.0970000000 9.2690000000 11.7380000000 
H 13.5630000000 8.5650000000 18.2420000000 
H 14.0450000000 6.9890000000 18.5700000000 
H 10.0720000000 12.7270000000 15.2220000000 
H 9.9410000000 12.2750000000 16.6940000000 
H 9.6700000000 10.2000000000 19.9640000000 
H 10.1210000000 9.1570000000 18.8020000000 
H 10.1990000000 6.5770000000 11.7230000000 
H 10.1030000000 7.7550000000 12.8750000000 
H 6.5480000000 8.5470000000 15.9250000000 
H 5.7170000000 8.6160000000 17.2870000000 
H 15.2960000000 12.4900000000 14.2360000000 
H 15.9610000000 13.9800000000 14.6820000000 
H 14.9820000000 7.0340000000 16.7650000000 
H 15.2250000000 5.6170000000 15.9690000000 
H 15.6810000000 10.0890000000 15.1090000000 
H 15.9310000000 11.1500000000 16.2620000000 
H 12.6320000000 8.3980000000 15.0950000000 
H 12.8290000000 7.9610000000 16.6450000000 
H 11.3450000000 11.9480000000 13.0130000000 
H 12.1140000000 13.2640000000 13.3380000000 
H 12.7850000000 7.7020000000 12.9950000000 
H 13.4020000000 9.2200000000 13.2480000000 
O 7.9240000000 6.1820000000 17.2790000000 
O 8.2960000000 9.7380000000 15.9400000000 
O 12.8210000000 11.3530000000 16.1890000000 
O 15.9370000000 8.7190000000 14.4450000000 
O 11.1440000000 12.6570000000 17.7850000000 
O 9.9020000000 7.9350000000 17.8080000000 
O 15.9470000000 10.7730000000 17.9680000000 
O 13.0380000000 14.5290000000 12.9420000000 
O 13.0140000000 10.1240000000 18.5510000000 
O 9.9000000000 7.9840000000 14.4390000000 
O 11.3490000000 10.2450000000 11.8400000000 
O 13.9110000000 7.6810000000 17.8400000000 
O 9.4460000000 12.2430000000 15.7720000000 
O 10.4420000000 10.0240000000 19.3370000000 
O 10.3170000000 7.6170000000 11.8490000000 
O 6.0270000000 7.9910000000 16.6040000000 
O 15.1960000000 13.5740000000 14.2110000000 
O 15.5650000000 6.5310000000 16.0920000000 
O 15.3390000000 11.0380000000 15.4160000000 
O 12.1760000000 7.9390000000 15.8430000000 
O 11.7730000000 12.4030000000 13.8070000000 
O 13.4270000000 8.2510000000 13.5360000000 

