&CONTROL
   calculation      = 'scf'
   tstress          = .true.
   tprnfor          = .true.
   outdir           = './429'
   disk_io          = 'none'
   pseudo_dir       = '/share/pfaendtnergroup/rverma7/QE_PP'
/
&SYSTEM
   ecutwfc          = 30
   input_dft        = 'PBE'
   ntyp             = 2
   nat              = 66
   ibrav            = 0
/
&ELECTRONS
   electron_maxstep = 1000
   mixing_beta      = 0.5
/
&IONS
/
&CELL
/

ATOMIC_SPECIES
H 1.008 H.pbe-rrkjus_psl.1.0.0.UPF
O 15.999 O.pbe-n-kjpaw_psl.0.1.UPF

K_POINTS gamma

CELL_PARAMETERS angstrom
40.06500000000000 0.00000000000000 0.00000000000000
0.00000000000000 40.06500000000000 0.00000000000000
0.00000000000000 0.00000000000000 40.06500000000000

ATOMIC_POSITIONS angstrom
H 13.5650000000 9.5340000000 17.6470000000 
H 13.1590000000 8.5360000000 16.3460000000 
H 10.0870000000 11.4310000000 16.2870000000 
H 10.3170000000 12.5170000000 15.2030000000 
H 14.3040000000 8.1370000000 13.9880000000 
H 13.2220000000 7.2470000000 14.4350000000 
H 8.1180000000 8.1330000000 15.9520000000 
H 8.8180000000 8.2990000000 17.3900000000 
H 12.4260000000 12.8440000000 20.8720000000 
H 12.7800000000 12.3680000000 19.2460000000 
H 14.3360000000 12.1800000000 14.3120000000 
H 13.6800000000 13.6150000000 14.5530000000 
H 16.1780000000 12.0440000000 10.7740000000 
H 15.2990000000 10.7000000000 10.8320000000 
H 6.0500000000 9.2810000000 17.1350000000 
H 6.8970000000 10.2630000000 16.0880000000 
H 13.7970000000 9.4730000000 9.3110000000 
H 13.0680000000 9.3600000000 10.7680000000 
H 11.8100000000 13.0040000000 17.2700000000 
H 13.4290000000 12.8200000000 16.9300000000 
H 15.9970000000 11.1870000000 13.1850000000 
H 15.1390000000 10.2060000000 14.1930000000 
H 8.2900000000 12.0700000000 16.8980000000 
H 7.0070000000 12.9310000000 16.4090000000 
H 11.4610000000 6.1130000000 17.3210000000 
H 10.1510000000 6.6850000000 16.4860000000 
H 10.0870000000 9.1470000000 15.6840000000 
H 11.4880000000 9.6520000000 16.3830000000 
H 11.8250000000 9.7830000000 18.5880000000 
H 11.9560000000 10.5670000000 19.9880000000 
H 11.6070000000 6.3920000000 14.9210000000 
H 11.3670000000 5.5010000000 13.6560000000 
H 11.5520000000 9.8630000000 12.5500000000 
H 11.9540000000 8.4540000000 13.0360000000 
H 9.5250000000 9.1660000000 19.5150000000 
H 8.6130000000 7.9900000000 19.7170000000 
H 12.2550000000 7.6870000000 18.1840000000 
H 11.7340000000 7.9530000000 19.4540000000 
H 12.1690000000 11.8730000000 13.9150000000 
H 11.1570000000 10.7830000000 14.1720000000 
H 14.6620000000 11.2160000000 18.8510000000 
H 15.6680000000 10.2230000000 18.0160000000 
H 14.7540000000 8.8710000000 11.4760000000 
H 16.0740000000 8.0340000000 11.9780000000 
O 12.7120000000 9.0050000000 17.1850000000 
O 10.1020000000 12.4490000000 16.1910000000 
O 13.6790000000 8.0500000000 14.8150000000 
O 8.9820000000 7.9840000000 16.4420000000 
O 12.7810000000 12.0760000000 20.2750000000 
O 13.4420000000 12.6830000000 14.5330000000 
O 15.7920000000 11.3760000000 11.4180000000 
O 6.5470000000 9.3040000000 16.3200000000 
O 13.9870000000 9.5590000000 10.3010000000 
O 12.7590000000 12.8100000000 17.6880000000 
O 15.7160000000 11.0430000000 14.1370000000 
O 7.3240000000 12.0460000000 16.5870000000 
O 11.0220000000 6.1590000000 16.4210000000 
O 10.8560000000 9.8560000000 15.6110000000 
O 11.3790000000 9.8220000000 19.5070000000 
O 11.9760000000 6.2420000000 13.9700000000 
O 11.7640000000 8.9530000000 12.1640000000 
O 8.7820000000 8.7280000000 19.0640000000 
O 11.8580000000 7.1120000000 18.8740000000 
O 11.3890000000 11.3720000000 13.4250000000 
O 14.7650000000 10.3360000000 18.3300000000 
O 15.2010000000 8.3760000000 12.3320000000 

