&CONTROL
   calculation      = 'scf'
   tstress          = .true.
   tprnfor          = .true.
   outdir           = './285'
   disk_io          = 'none'
   pseudo_dir       = '/share/pfaendtnergroup/rverma7/QE_PP'
/
&SYSTEM
   ecutwfc          = 30
   input_dft        = 'PBE'
   ntyp             = 2
   nat              = 66
   ibrav            = 0
/
&ELECTRONS
   electron_maxstep = 1000
   mixing_beta      = 0.5
/
&IONS
/
&CELL
/

ATOMIC_SPECIES
H 1.008 H.pbe-rrkjus_psl.1.0.0.UPF
O 15.999 O.pbe-n-kjpaw_psl.0.1.UPF

K_POINTS gamma

CELL_PARAMETERS angstrom
40.06500000000000 0.00000000000000 0.00000000000000
0.00000000000000 40.06500000000000 0.00000000000000
0.00000000000000 0.00000000000000 40.06500000000000

ATOMIC_POSITIONS angstrom
H 8.0190000000 12.5500000000 17.9350000000 
H 7.3830000000 11.6250000000 16.9170000000 
H 9.4490000000 10.7450000000 13.8010000000 
H 9.8740000000 11.4340000000 15.1700000000 
H 13.8940000000 11.0450000000 19.9020000000 
H 12.5200000000 11.4410000000 19.2020000000 
H 14.8340000000 6.4760000000 15.5880000000 
H 14.0290000000 7.6750000000 14.6350000000 
H 13.1440000000 12.8080000000 18.2780000000 
H 13.4980000000 14.4810000000 18.1440000000 
H 6.2700000000 9.0160000000 18.4710000000 
H 7.4640000000 10.0070000000 18.0480000000 
H 10.7170000000 7.8600000000 18.2400000000 
H 11.2950000000 9.1600000000 18.8230000000 
H 14.6360000000 9.6720000000 17.5990000000 
H 14.7850000000 11.2900000000 17.8770000000 
H 8.2750000000 7.2650000000 17.8160000000 
H 9.1000000000 5.8620000000 18.1600000000 
H 10.4590000000 8.8080000000 10.3800000000 
H 11.5320000000 8.0390000000 11.2150000000 
H 15.5520000000 12.6410000000 12.3050000000 
H 15.5250000000 10.9580000000 12.3680000000 
H 10.6460000000 7.1080000000 16.3390000000 
H 11.4670000000 6.0850000000 15.4070000000 
H 12.1460000000 11.5130000000 15.4770000000 
H 11.9540000000 12.6530000000 16.5520000000 
H 11.0580000000 11.0750000000 17.6450000000 
H 9.6840000000 11.1610000000 18.4910000000 
H 13.6770000000 9.2970000000 8.6090000000 
H 12.8880000000 9.1110000000 10.0110000000 
H 5.7440000000 11.5320000000 14.8150000000 
H 7.3850000000 11.4330000000 15.0090000000 
H 14.3000000000 8.8560000000 19.6320000000 
H 15.0880000000 8.9860000000 20.9230000000 
H 13.6320000000 9.6360000000 14.1600000000 
H 14.3170000000 9.2730000000 12.8660000000 
H 14.1080000000 7.7790000000 17.0760000000 
H 13.1620000000 8.0140000000 18.4280000000 
H 12.3780000000 7.6960000000 12.9440000000 
H 10.9600000000 7.4690000000 13.5320000000 
H 14.1550000000 11.7230000000 14.1130000000 
H 14.1250000000 11.0760000000 15.6530000000 
H 16.6640000000 9.4490000000 10.8130000000 
H 15.0300000000 9.7730000000 10.4630000000 
O 7.8130000000 11.6130000000 17.8470000000 
O 9.0780000000 11.2720000000 14.5720000000 
O 13.4810000000 11.7740000000 19.3130000000 
O 13.9990000000 7.0460000000 15.4560000000 
O 12.9130000000 13.7020000000 17.7180000000 
O 7.1200000000 9.0230000000 17.9540000000 
O 11.6280000000 8.2200000000 18.5040000000 
O 14.8470000000 10.5640000000 17.1370000000 
O 9.2370000000 6.8640000000 17.9940000000 
O 11.3530000000 8.4670000000 10.3200000000 
O 15.3230000000 11.8400000000 12.9220000000 
O 10.6910000000 6.7210000000 15.3710000000 
O 11.3970000000 11.8770000000 16.1270000000 
O 10.6490000000 10.8260000000 18.5920000000 
O 13.7770000000 9.4570000000 9.5880000000 
O 6.4820000000 11.5530000000 15.4870000000 
O 14.3350000000 9.4570000000 20.3780000000 
O 13.7910000000 8.8210000000 13.5630000000 
O 14.1640000000 8.0170000000 18.0380000000 
O 11.4490000000 7.5000000000 12.6960000000 
O 13.6170000000 11.1200000000 14.7710000000 
O 15.7770000000 9.7630000000 11.2380000000 

