&CONTROL
   calculation      = 'scf'
   tstress          = .true.
   tprnfor          = .true.
   outdir           = './441'
   disk_io          = 'none'
   pseudo_dir       = '/share/pfaendtnergroup/rverma7/QE_PP'
/
&SYSTEM
   ecutwfc          = 30
   input_dft        = 'PBE'
   ntyp             = 2
   nat              = 66
   ibrav            = 0
/
&ELECTRONS
   electron_maxstep = 1000
   mixing_beta      = 0.5
/
&IONS
/
&CELL
/

ATOMIC_SPECIES
H 1.008 H.pbe-rrkjus_psl.1.0.0.UPF
O 15.999 O.pbe-n-kjpaw_psl.0.1.UPF

K_POINTS gamma

CELL_PARAMETERS angstrom
40.06500000000000 0.00000000000000 0.00000000000000
0.00000000000000 40.06500000000000 0.00000000000000
0.00000000000000 0.00000000000000 40.06500000000000

ATOMIC_POSITIONS angstrom
H 8.0240000000 6.6650000000 12.8850000000 
H 8.4190000000 5.1300000000 12.7830000000 
H 10.9470000000 11.8610000000 16.0040000000 
H 12.2810000000 12.7390000000 16.1430000000 
H 14.5730000000 8.3740000000 15.6630000000 
H 13.3270000000 9.0200000000 14.8880000000 
H 5.1050000000 10.8030000000 14.5990000000 
H 6.4370000000 10.1330000000 15.3090000000 
H 10.0820000000 7.4240000000 15.4860000000 
H 10.6900000000 8.7000000000 16.2420000000 
H 16.0050000000 10.2130000000 18.1360000000 
H 15.8230000000 11.2400000000 19.4230000000 
H 16.3280000000 6.2940000000 15.7250000000 
H 16.3010000000 7.5050000000 14.6580000000 
H 7.6580000000 10.8540000000 19.1750000000 
H 6.4600000000 12.0450000000 19.1980000000 
H 18.9230000000 10.8640000000 16.2560000000 
H 17.6010000000 11.3930000000 15.3790000000 
H 11.8060000000 10.0130000000 18.1920000000 
H 12.6250000000 9.0510000000 17.1690000000 
H 15.8630000000 8.5890000000 16.9900000000 
H 17.2810000000 9.4420000000 17.1560000000 
H 11.4090000000 11.9590000000 18.2810000000 
H 12.3420000000 11.6540000000 19.6490000000 
H 9.4220000000 9.9090000000 11.8890000000 
H 7.8870000000 9.8610000000 12.2410000000 
H 9.7570000000 10.3190000000 15.0320000000 
H 9.5280000000 11.2530000000 13.7480000000 
H 9.5550000000 9.0550000000 19.7770000000 
H 10.2840000000 10.5330000000 19.3820000000 
H 11.9240000000 8.9990000000 13.0080000000 
H 11.6050000000 10.1800000000 14.0780000000 
H 16.8400000000 13.8920000000 14.6500000000 
H 16.1940000000 12.5340000000 15.3270000000 
H 7.6190000000 10.0150000000 17.2040000000 
H 8.5680000000 9.2390000000 16.1020000000 
H 10.0860000000 7.1860000000 12.2940000000 
H 11.5250000000 6.9770000000 11.5370000000 
H 15.1720000000 11.7270000000 17.1260000000 
H 14.5360000000 10.9650000000 15.8220000000 
H 8.1790000000 8.4010000000 14.4310000000 
H 6.6620000000 8.8410000000 13.8690000000 
H 17.9440000000 9.1340000000 14.8780000000 
H 18.6060000000 8.8330000000 13.5030000000 
O 8.6920000000 6.0200000000 12.4770000000 
O 11.6050000000 12.2720000000 16.6940000000 
O 13.8820000000 9.1110000000 15.7900000000 
O 5.7000000000 9.9700000000 14.6090000000 
O 9.9350000000 8.3860000000 15.6310000000 
O 15.6810000000 11.1470000000 18.4250000000 
O 15.7900000000 7.0960000000 15.4690000000 
O 7.0700000000 11.4340000000 18.6160000000 
O 18.0140000000 10.6140000000 15.8950000000 
O 11.7220000000 9.1750000000 17.6140000000 
O 16.5370000000 8.8830000000 17.6820000000 
O 11.4780000000 11.4440000000 19.2130000000 
O 8.7030000000 10.4340000000 12.3480000000 
O 10.1310000000 11.1640000000 14.5890000000 
O 9.3640000000 10.0290000000 19.5620000000 
O 12.3410000000 9.6590000000 13.6050000000 
O 17.0170000000 12.8780000000 14.8150000000 
O 7.7300000000 9.8590000000 16.2090000000 
O 10.9980000000 7.6260000000 12.0920000000 
O 14.8820000000 11.8620000000 16.1190000000 
O 7.4720000000 8.1720000000 13.7970000000 
O 18.0240000000 8.3830000000 14.1990000000 

