&CONTROL
   calculation      = 'scf'
   tstress          = .true.
   tprnfor          = .true.
   outdir           = './161'
   disk_io          = 'none'
   pseudo_dir       = '/share/pfaendtnergroup/rverma7/QE_PP'
/
&SYSTEM
   ecutwfc          = 30
   input_dft        = 'PBE'
   ntyp             = 2
   nat              = 66
   ibrav            = 0
/
&ELECTRONS
   electron_maxstep = 1000
   mixing_beta      = 0.5
/
&IONS
/
&CELL
/

ATOMIC_SPECIES
H 1.008 H.pbe-rrkjus_psl.1.0.0.UPF
O 15.999 O.pbe-n-kjpaw_psl.0.1.UPF

K_POINTS gamma

CELL_PARAMETERS angstrom
40.06500000000000 0.00000000000000 0.00000000000000
0.00000000000000 40.06500000000000 0.00000000000000
0.00000000000000 0.00000000000000 40.06500000000000

ATOMIC_POSITIONS angstrom
H 10.5840000000 6.2030000000 16.4180000000 
H 12.0450000000 5.6960000000 15.9410000000 
H 12.1470000000 12.9070000000 16.8350000000 
H 13.1550000000 11.9330000000 16.0160000000 
H 11.7850000000 16.6220000000 14.4040000000 
H 11.7030000000 14.9880000000 14.6460000000 
H 12.7140000000 7.9480000000 13.8390000000 
H 12.0960000000 7.3890000000 12.4880000000 
H 6.6270000000 10.2510000000 16.5390000000 
H 6.4180000000 11.3760000000 15.5070000000 
H 10.6270000000 9.0860000000 18.6630000000 
H 11.6480000000 10.0230000000 17.7400000000 
H 12.0300000000 10.3230000000 14.5990000000 
H 10.6390000000 11.0190000000 14.0500000000 
H 8.8000000000 11.3650000000 15.3250000000 
H 8.6510000000 9.8830000000 14.9830000000 
H 17.5180000000 8.0240000000 11.1800000000 
H 18.5770000000 8.2570000000 12.4850000000 
H 16.1780000000 8.3530000000 16.4640000000 
H 15.9020000000 9.2900000000 15.2300000000 
H 13.2960000000 11.4360000000 13.3720000000 
H 14.5990000000 12.5000000000 13.5390000000 
H 8.1520000000 8.0510000000 16.6770000000 
H 9.2030000000 9.2680000000 16.9920000000 
H 15.1610000000 14.7620000000 13.7300000000 
H 13.7600000000 14.7430000000 14.3420000000 
H 12.3590000000 8.0430000000 15.7290000000 
H 13.6850000000 9.0160000000 15.6290000000 
H 13.0000000000 8.0160000000 18.8650000000 
H 12.0370000000 6.9520000000 18.0730000000 
H 9.5240000000 11.2830000000 17.6700000000 
H 8.6710000000 12.6510000000 17.8310000000 
H 10.9840000000 13.0560000000 14.5000000000 
H 10.2580000000 13.2310000000 15.9340000000 
H 10.8880000000 7.1160000000 19.5680000000 
H 9.8510000000 6.0720000000 20.4160000000 
H 13.3480000000 10.6300000000 18.0320000000 
H 14.2530000000 9.4330000000 17.4480000000 
H 7.9190000000 5.6400000000 17.4640000000 
H 9.2940000000 6.4220000000 18.0090000000 
H 12.4040000000 5.5700000000 13.8620000000 
H 12.3660000000 3.9900000000 13.7210000000 
H 15.4020000000 10.5040000000 13.5500000000 
H 16.7700000000 9.7920000000 12.8820000000 
O 11.5300000000 6.4940000000 16.4160000000 
O 12.7870000000 12.1310000000 16.9050000000 
O 12.2690000000 15.7480000000 14.1680000000 
O 12.3860000000 7.0920000000 13.3860000000 
O 6.2110000000 11.0800000000 16.4360000000 
O 10.6850000000 9.7510000000 17.9570000000 
O 11.6690000000 11.1560000000 14.1530000000 
O 8.8160000000 10.7130000000 14.5510000000 
O 18.0190000000 8.7120000000 11.7930000000 
O 15.4110000000 8.8190000000 16.0260000000 
O 14.2840000000 11.5180000000 13.3300000000 
O 8.3250000000 9.0550000000 16.5080000000 
O 14.5020000000 14.1250000000 14.0830000000 
O 12.7950000000 8.8600000000 15.2000000000 
O 12.2180000000 7.3530000000 19.0080000000 
O 9.3430000000 12.1960000000 17.2160000000 
O 10.7760000000 13.7190000000 15.2570000000 
O 9.8800000000 6.7830000000 19.7120000000 
O 13.5930000000 9.6970000000 18.2160000000 
O 8.7250000000 6.1940000000 17.1490000000 
O 12.4370000000 4.7220000000 14.4210000000 
O 16.1930000000 9.8140000000 13.6680000000 

