&CONTROL
   calculation      = 'scf'
   tstress          = .true.
   tprnfor          = .true.
   outdir           = './218'
   disk_io          = 'none'
   pseudo_dir       = '/share/pfaendtnergroup/rverma7/QE_PP'
/
&SYSTEM
   ecutwfc          = 30
   input_dft        = 'PBE'
   ntyp             = 2
   nat              = 66
   ibrav            = 0
/
&ELECTRONS
   electron_maxstep = 1000
   mixing_beta      = 0.5
/
&IONS
/
&CELL
/

ATOMIC_SPECIES
H 1.008 H.pbe-rrkjus_psl.1.0.0.UPF
O 15.999 O.pbe-n-kjpaw_psl.0.1.UPF

K_POINTS gamma

CELL_PARAMETERS angstrom
40.06500000000000 0.00000000000000 0.00000000000000
0.00000000000000 40.06500000000000 0.00000000000000
0.00000000000000 0.00000000000000 40.06500000000000

ATOMIC_POSITIONS angstrom
H 9.2200000000 12.2990000000 17.3310000000 
H 10.8000000000 12.1050000000 16.9690000000 
H 11.5530000000 6.4770000000 15.4170000000 
H 13.0750000000 6.2080000000 15.7480000000 
H 12.1890000000 6.2230000000 18.4220000000 
H 10.8080000000 6.4890000000 17.9260000000 
H 14.2000000000 12.5410000000 13.6220000000 
H 14.0830000000 14.1560000000 13.7010000000 
H 7.4770000000 13.9280000000 14.4090000000 
H 8.8090000000 13.1860000000 15.1540000000 
H 10.8390000000 11.2220000000 15.4340000000 
H 10.8840000000 10.5450000000 13.9590000000 
H 12.7130000000 7.0490000000 13.4610000000 
H 11.7340000000 7.9530000000 12.5090000000 
H 9.4540000000 5.5790000000 15.8620000000 
H 9.6360000000 7.1540000000 16.2760000000 
H 15.0360000000 10.4630000000 17.3300000000 
H 14.1840000000 9.4230000000 16.4080000000 
H 11.8640000000 8.1580000000 18.3670000000 
H 13.0930000000 9.3010000000 17.9980000000 
H 12.3420000000 9.8820000000 14.9980000000 
H 12.9510000000 8.4350000000 14.6640000000 
H 13.8410000000 4.4340000000 17.2400000000 
H 14.3240000000 5.9720000000 17.3270000000 
H 9.2000000000 13.5970000000 13.0950000000 
H 9.4250000000 14.2460000000 11.6410000000 
H 11.4200000000 11.1110000000 11.7450000000 
H 10.4150000000 12.1610000000 12.5570000000 
H 13.8930000000 10.3950000000 13.6530000000 
H 14.3610000000 10.5240000000 12.1110000000 
H 14.7200000000 13.0910000000 15.7510000000 
H 14.9310000000 13.5150000000 17.2630000000 
H 9.7070000000 9.2770000000 15.7740000000 
H 8.3970000000 9.0420000000 16.8080000000 
H 16.1360000000 7.0150000000 18.2770000000 
H 15.2940000000 7.9270000000 17.3450000000 
H 14.9680000000 7.9750000000 10.1240000000 
H 13.9120000000 7.8600000000 11.3610000000 
H 7.4720000000 11.2940000000 19.3710000000 
H 8.8360000000 10.5620000000 19.0370000000 
H 13.2480000000 12.0540000000 17.2780000000 
H 12.3430000000 10.9430000000 18.0430000000 
H 9.9520000000 8.6380000000 20.1870000000 
H 10.7370000000 9.5080000000 19.0810000000 
O 9.9360000000 12.4810000000 16.6390000000 
O 12.4970000000 6.6610000000 15.0450000000 
O 11.3590000000 6.7380000000 18.6990000000 
O 14.5380000000 13.3970000000 14.0970000000 
O 8.4610000000 13.8620000000 14.5020000000 
O 10.8450000000 10.3200000000 14.9460000000 
O 12.6110000000 7.4920000000 12.5350000000 
O 10.1320000000 6.2380000000 16.2690000000 
O 14.6510000000 9.5020000000 17.3350000000 
O 12.1290000000 9.1740000000 18.3200000000 
O 13.2270000000 9.3480000000 15.0710000000 
O 13.5060000000 5.3150000000 17.4730000000 
O 9.8140000000 13.5740000000 12.2710000000 
O 10.6810000000 11.1440000000 12.4020000000 
O 13.9880000000 11.0830000000 12.8720000000 
O 14.8480000000 12.7280000000 16.6910000000 
O 9.0640000000 8.5630000000 16.2280000000 
O 15.6610000000 6.9950000000 17.3830000000 
O 14.6090000000 8.4330000000 10.9270000000 
O 8.2620000000 11.3510000000 18.7210000000 
O 12.3420000000 11.8120000000 17.5400000000 
O 9.8450000000 9.4460000000 19.5870000000 

