&CONTROL
   calculation      = 'scf'
   tstress          = .true.
   tprnfor          = .true.
   outdir           = './248'
   disk_io          = 'none'
   pseudo_dir       = '/share/pfaendtnergroup/rverma7/QE_PP'
/
&SYSTEM
   ecutwfc          = 30
   input_dft        = 'PBE'
   ntyp             = 2
   nat              = 66
   ibrav            = 0
/
&ELECTRONS
   electron_maxstep = 1000
   mixing_beta      = 0.5
/
&IONS
/
&CELL
/

ATOMIC_SPECIES
H 1.008 H.pbe-rrkjus_psl.1.0.0.UPF
O 15.999 O.pbe-n-kjpaw_psl.0.1.UPF

K_POINTS gamma

CELL_PARAMETERS angstrom
40.06500000000000 0.00000000000000 0.00000000000000
0.00000000000000 40.06500000000000 0.00000000000000
0.00000000000000 0.00000000000000 40.06500000000000

ATOMIC_POSITIONS angstrom
H 11.9560000000 12.0890000000 14.7700000000 
H 12.4290000000 11.4370000000 16.1710000000 
H 17.8350000000 9.4230000000 15.4720000000 
H 16.3270000000 8.8330000000 15.4250000000 
H 11.6600000000 14.3140000000 16.7220000000 
H 12.9520000000 13.2750000000 16.6840000000 
H 7.8600000000 10.0200000000 16.4450000000 
H 6.5080000000 9.9680000000 15.4470000000 
H 10.0120000000 11.1440000000 16.5490000000 
H 9.5940000000 10.3310000000 17.8100000000 
H 9.7710000000 9.0250000000 15.0260000000 
H 10.6050000000 10.2290000000 14.5330000000 
H 8.9110000000 7.6230000000 16.6780000000 
H 10.3400000000 7.3700000000 17.2560000000 
H 12.2750000000 10.9450000000 20.2420000000 
H 11.5560000000 10.1510000000 19.0040000000 
H 11.1290000000 7.3160000000 10.6490000000 
H 10.6220000000 7.5800000000 12.1210000000 
H 11.3700000000 12.0000000000 12.2130000000 
H 12.4600000000 13.1810000000 12.5290000000 
H 14.2260000000 8.7280000000 16.6150000000 
H 14.7740000000 7.6890000000 17.7770000000 
H 12.1870000000 7.7810000000 13.6120000000 
H 12.3500000000 9.4160000000 13.1940000000 
H 12.1260000000 6.0090000000 18.0110000000 
H 12.6510000000 7.4320000000 18.1170000000 
H 7.0540000000 7.8110000000 19.3930000000 
H 6.7860000000 8.6770000000 17.9850000000 
H 16.8180000000 7.3440000000 16.7310000000 
H 17.0910000000 6.1370000000 17.6450000000 
H 13.4550000000 15.4950000000 13.5590000000 
H 13.3760000000 14.5920000000 15.0300000000 
H 9.3450000000 8.7180000000 19.1510000000 
H 10.9240000000 8.2180000000 19.1410000000 
H 10.0680000000 10.5970000000 12.6720000000 
H 10.3940000000 9.6920000000 11.3350000000 
H 10.3860000000 6.9080000000 14.6170000000 
H 9.9900000000 7.9580000000 13.6550000000 
H 14.9350000000 12.7990000000 14.4880000000 
H 14.1890000000 12.0990000000 13.3950000000 
H 14.2500000000 10.6810000000 17.0150000000 
H 13.3100000000 11.3460000000 18.1440000000 
H 14.0600000000 9.1390000000 14.7130000000 
H 14.7680000000 10.5220000000 14.9070000000 
O 11.6450000000 11.4050000000 15.4500000000 
O 17.3340000000 8.6030000000 15.6230000000 
O 12.4560000000 13.9730000000 16.1640000000 
O 7.0740000000 9.4410000000 16.0900000000 
O 9.1850000000 10.7380000000 17.0280000000 
O 9.9180000000 9.5720000000 14.2280000000 
O 9.7990000000 7.2510000000 16.4330000000 
O 12.2230000000 10.9270000000 19.2150000000 
O 10.7480000000 8.0190000000 11.2430000000 
O 12.1930000000 12.2660000000 12.8020000000 
O 13.9090000000 8.2040000000 17.4520000000 
O 12.7050000000 8.7020000000 13.8240000000 
O 11.8170000000 6.8170000000 18.4420000000 
O 7.4350000000 8.3650000000 18.6970000000 
O 16.2880000000 6.7030000000 17.3720000000 
O 13.9820000000 14.8310000000 14.2040000000 
O 10.3110000000 9.0190000000 19.2300000000 
O 10.1870000000 10.6730000000 11.6280000000 
O 10.4150000000 7.0050000000 13.6590000000 
O 14.8180000000 11.8790000000 14.1320000000 
O 13.7220000000 11.5430000000 17.2090000000 
O 14.7870000000 9.5640000000 15.2970000000 

