&CONTROL
   calculation      = 'scf'
   tstress          = .true.
   tprnfor          = .true.
   outdir           = './436'
   disk_io          = 'none'
   pseudo_dir       = '/share/pfaendtnergroup/rverma7/QE_PP'
/
&SYSTEM
   ecutwfc          = 30
   input_dft        = 'PBE'
   ntyp             = 2
   nat              = 66
   ibrav            = 0
/
&ELECTRONS
   electron_maxstep = 1000
   mixing_beta      = 0.5
/
&IONS
/
&CELL
/

ATOMIC_SPECIES
H 1.008 H.pbe-rrkjus_psl.1.0.0.UPF
O 15.999 O.pbe-n-kjpaw_psl.0.1.UPF

K_POINTS gamma

CELL_PARAMETERS angstrom
40.06500000000000 0.00000000000000 0.00000000000000
0.00000000000000 40.06500000000000 0.00000000000000
0.00000000000000 0.00000000000000 40.06500000000000

ATOMIC_POSITIONS angstrom
H 9.5530000000 5.5990000000 16.0030000000 
H 9.9690000000 4.1580000000 15.7350000000 
H 11.0080000000 11.1300000000 16.0410000000 
H 12.4710000000 11.7780000000 16.0480000000 
H 15.2310000000 8.8890000000 14.4330000000 
H 13.4740000000 8.6380000000 14.5310000000 
H 5.5030000000 8.8960000000 16.7090000000 
H 6.9000000000 9.6010000000 16.3130000000 
H 9.7530000000 9.3400000000 18.8220000000 
H 11.1750000000 8.7260000000 18.2710000000 
H 16.2920000000 10.5300000000 17.5950000000 
H 15.7290000000 11.5320000000 18.8670000000 
H 18.1100000000 8.1720000000 14.4550000000 
H 17.9870000000 9.5060000000 13.6000000000 
H 9.1020000000 11.5620000000 19.3530000000 
H 9.3870000000 10.7080000000 20.7110000000 
H 15.8840000000 12.8670000000 11.4250000000 
H 14.9170000000 11.7350000000 11.9580000000 
H 13.2760000000 8.3750000000 16.8370000000 
H 13.7950000000 9.4630000000 18.0070000000 
H 18.1320000000 9.9510000000 16.0910000000 
H 18.4990000000 11.0330000000 17.2320000000 
H 10.6480000000 13.2530000000 16.6070000000 
H 10.3570000000 14.5410000000 15.7120000000 
H 9.1090000000 7.5380000000 13.4440000000 
H 7.5800000000 7.5290000000 14.0150000000 
H 9.3230000000 9.0020000000 14.7930000000 
H 9.8090000000 9.2320000000 16.3450000000 
H 8.1780000000 12.9350000000 17.8190000000 
H 9.4690000000 13.6300000000 18.0730000000 
H 11.3900000000 8.8090000000 14.6990000000 
H 11.4250000000 7.5760000000 13.6460000000 
H 13.8650000000 12.1380000000 14.0930000000 
H 12.7710000000 11.8060000000 13.0430000000 
H 8.7570000000 11.0160000000 17.3600000000 
H 8.7170000000 10.5430000000 15.8310000000 
H 10.3240000000 5.9250000000 13.9160000000 
H 10.5770000000 6.0950000000 12.1990000000 
H 14.3790000000 11.2430000000 16.7930000000 
H 14.2780000000 10.5450000000 15.3440000000 
H 9.2430000000 7.4680000000 17.4630000000 
H 7.8370000000 7.2950000000 16.4780000000 
H 16.6030000000 10.6300000000 11.8380000000 
H 16.6000000000 9.1130000000 11.4790000000 
O 9.8350000000 5.0010000000 15.2190000000 
O 11.4280000000 12.0150000000 16.2100000000 
O 14.3620000000 9.0020000000 14.9930000000 
O 6.3060000000 8.7580000000 16.1650000000 
O 10.1550000000 8.6790000000 18.1630000000 
O 15.4570000000 11.0220000000 18.0190000000 
O 18.2430000000 9.1890000000 14.4970000000 
O 9.1510000000 10.5500000000 19.7100000000 
O 15.6870000000 11.8700000000 11.3220000000 
O 13.1460000000 8.6840000000 17.8030000000 
O 17.8490000000 10.2770000000 17.0300000000 
O 10.0790000000 14.0850000000 16.5800000000 
O 8.4570000000 8.0660000000 14.0060000000 
O 10.0220000000 9.5560000000 15.4050000000 
O 8.8200000000 12.9740000000 18.5560000000 
O 12.0090000000 8.1930000000 14.2240000000 
O 13.6650000000 12.2200000000 13.1550000000 
O 8.1410000000 10.8520000000 16.5830000000 
O 10.3740000000 6.5780000000 13.0660000000 
O 13.9950000000 11.4340000000 15.8200000000 
O 8.6140000000 6.8490000000 16.9180000000 
O 17.0320000000 9.7450000000 12.1060000000 

