&CONTROL
   calculation      = 'scf'
   tstress          = .true.
   tprnfor          = .true.
   outdir           = './290'
   disk_io          = 'none'
   pseudo_dir       = '/share/pfaendtnergroup/rverma7/QE_PP'
/
&SYSTEM
   ecutwfc          = 30
   input_dft        = 'PBE'
   ntyp             = 2
   nat              = 66
   ibrav            = 0
/
&ELECTRONS
   electron_maxstep = 1000
   mixing_beta      = 0.5
/
&IONS
/
&CELL
/

ATOMIC_SPECIES
H 1.008 H.pbe-rrkjus_psl.1.0.0.UPF
O 15.999 O.pbe-n-kjpaw_psl.0.1.UPF

K_POINTS gamma

CELL_PARAMETERS angstrom
40.06500000000000 0.00000000000000 0.00000000000000
0.00000000000000 40.06500000000000 0.00000000000000
0.00000000000000 0.00000000000000 40.06500000000000

ATOMIC_POSITIONS angstrom
H 6.2460000000 13.6330000000 13.0630000000 
H 7.6950000000 12.9220000000 12.8160000000 
H 11.4840000000 11.7010000000 12.9560000000 
H 10.4910000000 12.1210000000 14.1900000000 
H 12.0860000000 9.2450000000 20.4710000000 
H 13.0100000000 8.3910000000 19.6120000000 
H 12.3780000000 6.1150000000 13.1040000000 
H 13.1580000000 7.4260000000 13.8130000000 
H 12.0650000000 10.6480000000 18.7010000000 
H 13.0790000000 11.3100000000 17.5380000000 
H 5.7370000000 10.5440000000 17.9380000000 
H 7.0170000000 11.3210000000 17.4070000000 
H 10.3280000000 8.2460000000 17.7070000000 
H 11.8210000000 8.5380000000 18.1020000000 
H 13.8600000000 6.0170000000 19.3080000000 
H 13.1890000000 6.4780000000 20.7760000000 
H 8.1010000000 9.5650000000 17.9100000000 
H 8.4910000000 8.1170000000 18.7730000000 
H 12.9620000000 13.4830000000 14.4410000000 
H 13.1000000000 11.7990000000 14.5490000000 
H 14.8100000000 12.3610000000 17.6200000000 
H 14.5020000000 12.1060000000 16.0690000000 
H 11.0840000000 8.5890000000 15.7310000000 
H 10.9820000000 7.9630000000 14.2730000000 
H 10.2550000000 10.4270000000 15.5580000000 
H 10.8710000000 11.6050000000 16.5410000000 
H 8.6260000000 11.7540000000 15.7820000000 
H 7.2820000000 12.3700000000 15.2000000000 
H 16.3530000000 11.9560000000 14.2640000000 
H 15.0110000000 11.9900000000 13.5980000000 
H 9.3800000000 13.7850000000 11.0080000000 
H 9.7360000000 13.0160000000 12.4050000000 
H 13.4730000000 4.8920000000 17.3770000000 
H 14.8640000000 4.3180000000 17.4400000000 
H 15.1050000000 8.0780000000 14.7290000000 
H 14.9990000000 8.3910000000 13.1330000000 
H 12.4340000000 5.9720000000 15.2920000000 
H 12.2100000000 6.3810000000 16.8960000000 
H 13.4360000000 9.4840000000 13.4060000000 
H 11.9710000000 9.8030000000 14.0870000000 
H 15.9520000000 9.8870000000 16.0220000000 
H 16.6310000000 9.1000000000 17.1770000000 
H 16.4070000000 8.9410000000 11.2080000000 
H 15.9540000000 9.9730000000 12.4480000000 
O 6.8750000000 12.9640000000 13.4700000000 
O 10.8630000000 12.4540000000 13.2720000000 
O 12.4350000000 9.2410000000 19.5670000000 
O 12.2150000000 6.8920000000 13.6820000000 
O 12.1510000000 11.3480000000 17.9790000000 
O 6.7300000000 10.6330000000 18.1010000000 
O 11.2840000000 7.9410000000 17.4860000000 
O 13.4670000000 6.8540000000 19.8760000000 
O 8.7610000000 8.7700000000 18.0640000000 
O 13.5650000000 12.7120000000 14.7790000000 
O 14.9600000000 11.7400000000 16.8910000000 
O 10.6080000000 8.7530000000 14.8100000000 
O 10.3050000000 11.4680000000 15.7270000000 
O 7.7150000000 12.1050000000 16.1060000000 
O 15.8070000000 11.4280000000 13.5870000000 
O 8.9620000000 13.3530000000 11.8070000000 
O 14.3230000000 4.8520000000 18.0370000000 
O 14.4050000000 8.0740000000 13.9900000000 
O 12.5700000000 5.7110000000 16.2570000000 
O 12.8450000000 10.2170000000 13.7540000000 
O 16.1800000000 8.9740000000 16.3020000000 
O 15.7850000000 9.0840000000 11.9960000000 

