&CONTROL
   calculation      = 'scf'
   tstress          = .true.
   tprnfor          = .true.
   outdir           = './17'
   disk_io          = 'none'
   pseudo_dir       = '/share/pfaendtnergroup/rverma7/QE_PP'
/
&SYSTEM
   ecutwfc          = 30
   input_dft        = 'PBE'
   ntyp             = 2
   nat              = 66
   ibrav            = 0
/
&ELECTRONS
   electron_maxstep = 1000
   mixing_beta      = 0.5
/
&IONS
/
&CELL
/

ATOMIC_SPECIES
H 1.008 H.pbe-rrkjus_psl.1.0.0.UPF
O 15.999 O.pbe-n-kjpaw_psl.0.1.UPF

K_POINTS gamma

CELL_PARAMETERS angstrom
40.06500000000000 0.00000000000000 0.00000000000000
0.00000000000000 40.06500000000000 0.00000000000000
0.00000000000000 0.00000000000000 40.06500000000000

ATOMIC_POSITIONS angstrom
H 11.9470000000 11.4090000000 17.0730000000 
H 10.8900000000 12.3510000000 16.5020000000 
H 14.9010000000 8.6800000000 18.7570000000 
H 15.0480000000 8.0530000000 17.2830000000 
H 14.5570000000 14.5340000000 17.9750000000 
H 13.5380000000 14.3290000000 16.7950000000 
H 11.5840000000 5.1190000000 11.7380000000 
H 11.9210000000 6.7070000000 12.2030000000 
H 12.7000000000 10.4680000000 20.1970000000 
H 12.5410000000 10.5130000000 18.5540000000 
H 6.3600000000 9.0110000000 16.8520000000 
H 7.1690000000 9.5360000000 15.5910000000 
H 12.8940000000 6.8930000000 15.4240000000 
H 13.4750000000 5.9780000000 16.4320000000 
H 8.8140000000 9.1130000000 16.8460000000 
H 10.0630000000 10.1320000000 17.2800000000 
H 11.6770000000 13.1300000000 14.0060000000 
H 10.2480000000 12.4460000000 14.3900000000 
H 10.6580000000 10.9790000000 12.5860000000 
H 9.9360000000 9.5780000000 12.3950000000 
H 11.4020000000 7.7080000000 14.0790000000 
H 12.3620000000 8.9260000000 13.6450000000 
H 8.3920000000 10.5520000000 13.6820000000 
H 6.8660000000 10.1400000000 13.1290000000 
H 13.4700000000 10.4190000000 15.2330000000 
H 14.2630000000 9.4200000000 14.2170000000 
H 15.6780000000 7.8620000000 13.7840000000 
H 15.4120000000 7.9510000000 15.3580000000 
H 10.2000000000 8.3470000000 18.4100000000 
H 11.6730000000 8.5840000000 19.1020000000 
H 14.0700000000 10.2170000000 17.2220000000 
H 14.1800000000 11.7380000000 16.6110000000 
H 11.6100000000 15.1220000000 16.9810000000 
H 11.8510000000 15.1730000000 15.3670000000 
H 14.4240000000 6.1840000000 12.6850000000 
H 15.8880000000 6.1830000000 11.9370000000 
H 13.1340000000 11.8130000000 11.9140000000 
H 12.5130000000 10.8830000000 13.2340000000 
H 11.6810000000 6.5820000000 18.4030000000 
H 12.0190000000 5.0090000000 18.5890000000 
H 9.4180000000 14.4210000000 18.2590000000 
H 10.6490000000 13.3980000000 18.2220000000 
H 10.7090000000 8.0430000000 16.0870000000 
H 10.9240000000 6.4340000000 16.1270000000 
O 11.0130000000 11.6880000000 17.2550000000 
O 14.8760000000 8.9300000000 17.7940000000 
O 14.1630000000 13.7880000000 17.3630000000 
O 12.3480000000 5.7890000000 11.9790000000 
O 12.5340000000 9.9180000000 19.3780000000 
O 7.2780000000 9.1800000000 16.5180000000 
O 13.8210000000 6.5390000000 15.7050000000 
O 9.8350000000 9.1570000000 16.9990000000 
O 10.8970000000 13.1760000000 14.6790000000 
O 9.8000000000 10.5210000000 12.8160000000 
O 11.6270000000 8.3400000000 13.2660000000 
O 7.3980000000 10.3010000000 13.9830000000 
O 13.3980000000 9.9650000000 14.3060000000 
O 15.7210000000 8.4730000000 14.6240000000 
O 10.9110000000 7.8760000000 18.9820000000 
O 13.5600000000 10.9530000000 16.6190000000 
O 12.3040000000 15.4410000000 16.2760000000 
O 15.3410000000 6.6520000000 12.6100000000 
O 12.3330000000 11.6260000000 12.4810000000 
O 12.3440000000 5.8470000000 18.0740000000 
O 10.4330000000 14.4000000000 18.2420000000 
O 11.1020000000 7.2220000000 15.5690000000 

