&CONTROL
   calculation      = 'scf'
   tstress          = .true.
   tprnfor          = .true.
   outdir           = './353'
   disk_io          = 'none'
   pseudo_dir       = '/share/pfaendtnergroup/rverma7/QE_PP'
/
&SYSTEM
   ecutwfc          = 30
   input_dft        = 'PBE'
   ntyp             = 2
   nat              = 66
   ibrav            = 0
/
&ELECTRONS
   electron_maxstep = 1000
   mixing_beta      = 0.5
/
&IONS
/
&CELL
/

ATOMIC_SPECIES
H 1.008 H.pbe-rrkjus_psl.1.0.0.UPF
O 15.999 O.pbe-n-kjpaw_psl.0.1.UPF

K_POINTS gamma

CELL_PARAMETERS angstrom
40.06500000000000 0.00000000000000 0.00000000000000
0.00000000000000 40.06500000000000 0.00000000000000
0.00000000000000 0.00000000000000 40.06500000000000

ATOMIC_POSITIONS angstrom
H 10.3520000000 9.1030000000 17.8530000000 
H 9.0400000000 8.4280000000 17.9880000000 
H 14.1500000000 12.2610000000 16.7900000000 
H 13.6200000000 10.6520000000 17.0990000000 
H 14.2280000000 8.6360000000 10.9960000000 
H 15.0360000000 7.4810000000 10.1660000000 
H 7.0940000000 11.6350000000 15.5100000000 
H 8.5530000000 10.8510000000 15.6310000000 
H 12.2130000000 9.6100000000 20.6880000000 
H 10.8280000000 10.1230000000 21.4200000000 
H 14.8020000000 8.8680000000 18.3370000000 
H 15.2060000000 7.4050000000 17.6250000000 
H 15.3790000000 10.5590000000 19.9350000000 
H 16.2610000000 9.3720000000 20.2050000000 
H 12.1070000000 8.1300000000 14.4570000000 
H 13.6810000000 8.4900000000 14.4560000000 
H 13.1690000000 11.3530000000 14.6740000000 
H 12.9440000000 10.4670000000 13.4360000000 
H 10.1690000000 11.9220000000 14.1320000000 
H 9.3960000000 10.7180000000 13.3220000000 
H 11.4110000000 7.9190000000 19.4480000000 
H 12.9130000000 7.9630000000 18.7740000000 
H 8.3510000000 10.3540000000 11.0670000000 
H 9.6850000000 9.5330000000 11.4790000000 
H 7.3410000000 9.1010000000 16.0900000000 
H 7.6660000000 7.8640000000 15.1350000000 
H 15.1790000000 9.4700000000 13.2990000000 
H 15.3040000000 10.8120000000 12.2660000000 
H 11.6680000000 12.8380000000 13.4900000000 
H 11.1300000000 14.2280000000 12.8840000000 
H 11.2340000000 9.3650000000 15.9160000000 
H 10.6230000000 10.8430000000 15.5730000000 
H 14.2410000000 12.0580000000 21.8440000000 
H 13.2290000000 11.0480000000 21.0140000000 
H 14.5960000000 10.2040000000 15.3520000000 
H 15.3990000000 8.8950000000 15.7740000000 
H 15.6060000000 13.8600000000 18.7500000000 
H 14.5970000000 12.8210000000 19.5180000000 
H 11.9420000000 8.6410000000 12.0160000000 
H 12.0540000000 8.7600000000 10.4090000000 
H 10.3320000000 7.0870000000 16.0330000000 
H 9.8580000000 7.7360000000 14.6240000000 
H 8.3960000000 8.5050000000 13.0540000000 
H 8.7370000000 6.9440000000 13.2910000000 
O 9.9820000000 8.2590000000 18.2780000000 
O 13.7930000000 11.3610000000 16.3760000000 
O 14.1550000000 7.9790000000 10.2320000000 
O 7.5300000000 10.9000000000 15.9910000000 
O 11.8420000000 10.3000000000 21.3340000000 
O 14.5480000000 8.1950000000 17.5910000000 
O 15.7460000000 9.7580000000 19.4510000000 
O 12.8540000000 8.4870000000 13.9060000000 
O 12.6210000000 11.3580000000 13.7970000000 
O 9.4500000000 11.1590000000 14.2080000000 
O 12.3850000000 8.1410000000 19.6760000000 
O 8.7090000000 9.7350000000 11.7490000000 
O 7.3990000000 8.1210000000 16.0960000000 
O 15.1320000000 9.8140000000 12.3320000000 
O 10.8300000000 13.4190000000 13.3610000000 
O 11.0190000000 10.2360000000 16.3060000000 
O 14.1900000000 11.4590000000 21.0160000000 
O 15.0660000000 9.4200000000 14.9540000000 
O 15.0800000000 12.9920000000 18.6250000000 
O 11.4420000000 9.0110000000 11.2130000000 
O 10.6880000000 7.5800000000 15.2190000000 
O 8.3190000000 7.7370000000 13.7120000000 

