&CONTROL
   calculation      = 'scf'
   tstress          = .true.
   tprnfor          = .true.
   outdir           = './117'
   disk_io          = 'none'
   pseudo_dir       = '/share/pfaendtnergroup/rverma7/QE_PP'
/
&SYSTEM
   ecutwfc          = 30
   input_dft        = 'PBE'
   ntyp             = 2
   nat              = 66
   ibrav            = 0
/
&ELECTRONS
   electron_maxstep = 1000
   mixing_beta      = 0.5
/
&IONS
/
&CELL
/

ATOMIC_SPECIES
H 1.008 H.pbe-rrkjus_psl.1.0.0.UPF
O 15.999 O.pbe-n-kjpaw_psl.0.1.UPF

K_POINTS gamma

CELL_PARAMETERS angstrom
40.06500000000000 0.00000000000000 0.00000000000000
0.00000000000000 40.06500000000000 0.00000000000000
0.00000000000000 0.00000000000000 40.06500000000000

ATOMIC_POSITIONS angstrom
H 11.0260000000 9.5170000000 20.5500000000 
H 11.1680000000 10.2980000000 22.0580000000 
H 8.0530000000 11.6310000000 12.2800000000 
H 8.7600000000 10.1040000000 12.4730000000 
H 14.6810000000 10.5200000000 19.5830000000 
H 14.9430000000 12.0000000000 19.1170000000 
H 9.6870000000 10.2500000000 10.8670000000 
H 9.9780000000 10.8090000000 9.4740000000 
H 12.5610000000 9.6990000000 17.9180000000 
H 12.7120000000 11.0140000000 18.7870000000 
H 16.4740000000 13.3350000000 14.9520000000 
H 15.4100000000 12.1550000000 14.7790000000 
H 13.4540000000 9.0080000000 12.5760000000 
H 14.6360000000 8.0530000000 12.1280000000 
H 11.7750000000 11.4260000000 16.0460000000 
H 10.9710000000 10.2900000000 15.4360000000 
H 13.4890000000 11.5950000000 13.0650000000 
H 13.1140000000 11.4870000000 14.6690000000 
H 10.9990000000 6.6160000000 13.4350000000 
H 10.6330000000 7.3550000000 11.9150000000 
H 11.7970000000 9.4750000000 10.4510000000 
H 12.3980000000 10.3810000000 11.6860000000 
H 11.1240000000 8.3080000000 15.5190000000 
H 9.6810000000 8.2430000000 16.2170000000 
H 15.8000000000 12.8980000000 16.9320000000 
H 16.5880000000 13.5720000000 18.2530000000 
H 8.7190000000 8.0650000000 18.3310000000 
H 8.4150000000 6.5140000000 17.8270000000 
H 12.9310000000 7.6460000000 15.5450000000 
H 13.1740000000 7.4250000000 13.9710000000 
H 8.9670000000 8.1460000000 13.1660000000 
H 9.1310000000 9.0700000000 14.4670000000 
H 8.5370000000 9.9700000000 19.3740000000 
H 7.0180000000 9.5230000000 18.7830000000 
H 9.5190000000 12.2240000000 18.8270000000 
H 10.5510000000 11.0290000000 18.7980000000 
H 10.4330000000 11.5510000000 12.5280000000 
H 11.5870000000 11.3930000000 13.6300000000 
H 13.9540000000 7.3730000000 20.4160000000 
H 13.1920000000 8.7910000000 20.3800000000 
H 14.4090000000 8.5480000000 16.7090000000 
H 13.8140000000 8.3920000000 18.2230000000 
H 16.2290000000 9.2090000000 15.1900000000 
H 14.8730000000 8.7530000000 14.4770000000 
O 11.5670000000 9.6120000000 21.3570000000 
O 8.7920000000 11.0090000000 11.9360000000 
O 14.1510000000 11.3770000000 19.4760000000 
O 10.0900000000 9.9070000000 9.9320000000 
O 11.9550000000 10.4510000000 18.3190000000 
O 16.1710000000 12.4890000000 15.3900000000 
O 14.1860000000 8.4120000000 12.9640000000 
O 11.5060000000 11.1280000000 15.1820000000 
O 13.9240000000 11.5590000000 14.0020000000 
O 10.3120000000 6.9580000000 12.8240000000 
O 12.5530000000 9.4610000000 11.1910000000 
O 10.3460000000 8.9030000000 15.7610000000 
O 15.6620000000 13.1850000000 17.8920000000 
O 8.8490000000 7.3920000000 17.5710000000 
O 12.4410000000 7.3050000000 14.7280000000 
O 8.6340000000 8.9950000000 13.5460000000 
O 7.8040000000 9.2220000000 19.3070000000 
O 9.6030000000 11.2940000000 19.1100000000 
O 11.4800000000 11.5540000000 12.6160000000 
O 13.8210000000 8.1910000000 19.8500000000 
O 13.5020000000 8.5050000000 17.2460000000 
O 15.4270000000 8.6580000000 15.3340000000 

