&CONTROL
   calculation      = 'scf'
   tstress          = .true.
   tprnfor          = .true.
   outdir           = './64'
   disk_io          = 'none'
   pseudo_dir       = '/share/pfaendtnergroup/rverma7/QE_PP'
/
&SYSTEM
   ecutwfc          = 30
   input_dft        = 'PBE'
   ntyp             = 2
   nat              = 66
   ibrav            = 0
/
&ELECTRONS
   electron_maxstep = 1000
   mixing_beta      = 0.5
/
&IONS
/
&CELL
/

ATOMIC_SPECIES
H 1.008 H.pbe-rrkjus_psl.1.0.0.UPF
O 15.999 O.pbe-n-kjpaw_psl.0.1.UPF

K_POINTS gamma

CELL_PARAMETERS angstrom
40.06500000000000 0.00000000000000 0.00000000000000
0.00000000000000 40.06500000000000 0.00000000000000
0.00000000000000 0.00000000000000 40.06500000000000

ATOMIC_POSITIONS angstrom
H 15.2210000000 8.7080000000 12.1450000000 
H 16.8200000000 8.7520000000 11.4820000000 
H 13.2790000000 6.5300000000 17.1550000000 
H 12.2250000000 5.9680000000 16.0290000000 
H 8.8290000000 12.0140000000 19.4140000000 
H 8.5290000000 12.5520000000 17.8950000000 
H 14.0990000000 7.6220000000 13.5770000000 
H 12.7690000000 8.3280000000 13.3140000000 
H 10.5310000000 11.4100000000 15.2400000000 
H 9.9970000000 11.0080000000 16.7510000000 
H 10.0100000000 8.9180000000 14.0330000000 
H 10.1100000000 9.6440000000 12.7290000000 
H 10.7940000000 11.6180000000 13.0050000000 
H 11.5200000000 12.7900000000 13.8610000000 
H 14.7410000000 11.4900000000 13.9330000000 
H 13.7670000000 12.5810000000 14.7400000000 
H 11.4100000000 9.0560000000 19.7400000000 
H 10.2590000000 9.8970000000 18.9410000000 
H 12.3340000000 10.3250000000 16.3610000000 
H 13.7670000000 10.1850000000 15.6150000000 
H 10.3620000000 7.4330000000 18.6660000000 
H 9.6810000000 6.0150000000 19.0000000000 
H 11.9770000000 8.7110000000 15.4910000000 
H 11.1120000000 7.3270000000 15.0060000000 
H 7.6870000000 12.1960000000 15.7600000000 
H 6.7710000000 13.4900000000 16.2840000000 
H 12.6910000000 10.7180000000 20.0560000000 
H 13.2660000000 9.9830000000 21.3700000000 
H 12.6160000000 10.7050000000 12.8190000000 
H 12.5820000000 9.5600000000 11.8130000000 
H 14.2810000000 6.3490000000 15.1740000000 
H 15.8610000000 6.6700000000 14.9900000000 
H 12.5820000000 11.6740000000 18.0730000000 
H 11.2820000000 12.1240000000 18.6800000000 
H 12.4960000000 14.1420000000 15.9200000000 
H 13.0100000000 15.2030000000 14.7800000000 
H 13.6460000000 8.6510000000 17.6400000000 
H 13.8560000000 8.4040000000 19.2190000000 
H 17.3890000000 11.4750000000 13.2710000000 
H 16.1510000000 10.5430000000 13.0070000000 
H 10.1240000000 6.2900000000 16.7230000000 
H 9.5100000000 5.4100000000 15.6570000000 
H 8.2740000000 10.2240000000 14.1850000000 
H 8.7260000000 11.7830000000 13.9420000000 
O 16.1070000000 9.2190000000 12.0380000000 
O 13.2130000000 5.9060000000 16.3280000000 
O 9.2520000000 12.1500000000 18.5030000000 
O 13.6330000000 8.1140000000 12.8070000000 
O 10.8080000000 11.0650000000 16.1570000000 
O 9.3780000000 9.2110000000 13.3050000000 
O 10.6490000000 12.2840000000 13.7450000000 
O 13.7520000000 11.6840000000 14.2210000000 
O 10.4910000000 8.9990000000 19.2220000000 
O 13.2210000000 9.8330000000 16.3550000000 
O 10.1360000000 6.5220000000 18.2780000000 
O 11.4270000000 8.2760000000 14.7850000000 
O 7.3210000000 12.7470000000 16.5610000000 
O 12.8720000000 9.8190000000 20.3970000000 
O 11.9830000000 10.3040000000 12.1740000000 
O 14.9940000000 6.7310000000 14.5260000000 
O 12.2690000000 11.8930000000 18.9080000000 
O 12.8800000000 14.1880000000 15.0140000000 
O 13.6350000000 7.9610000000 18.3290000000 
O 16.3990000000 11.4090000000 13.4830000000 
O 10.3400000000 5.9810000000 15.7800000000 
O 8.0330000000 11.2320000000 14.4520000000 

