&CONTROL
   calculation      = 'scf'
   tstress          = .true.
   tprnfor          = .true.
   outdir           = './199'
   disk_io          = 'none'
   pseudo_dir       = '/share/pfaendtnergroup/rverma7/QE_PP'
/
&SYSTEM
   ecutwfc          = 30
   input_dft        = 'PBE'
   ntyp             = 2
   nat              = 66
   ibrav            = 0
/
&ELECTRONS
   electron_maxstep = 1000
   mixing_beta      = 0.5
/
&IONS
/
&CELL
/

ATOMIC_SPECIES
H 1.008 H.pbe-rrkjus_psl.1.0.0.UPF
O 15.999 O.pbe-n-kjpaw_psl.0.1.UPF

K_POINTS gamma

CELL_PARAMETERS angstrom
40.06500000000000 0.00000000000000 0.00000000000000
0.00000000000000 40.06500000000000 0.00000000000000
0.00000000000000 0.00000000000000 40.06500000000000

ATOMIC_POSITIONS angstrom
H 10.7510000000 10.1340000000 19.9300000000 
H 10.1070000000 9.3370000000 18.6970000000 
H 11.9710000000 13.8090000000 15.4950000000 
H 10.6030000000 13.7200000000 14.7660000000 
H 11.4250000000 10.8780000000 13.2190000000 
H 12.2210000000 11.8830000000 14.2250000000 
H 10.7190000000 7.0420000000 14.9770000000 
H 10.1870000000 5.5350000000 14.3310000000 
H 11.7620000000 6.6200000000 20.7290000000 
H 11.3330000000 8.2260000000 20.5910000000 
H 13.0820000000 11.8060000000 19.8330000000 
H 14.6800000000 11.5280000000 20.0550000000 
H 12.7300000000 8.8680000000 12.2440000000 
H 13.2510000000 10.0720000000 12.9860000000 
H 11.5490000000 12.2930000000 17.0040000000 
H 10.7710000000 10.9020000000 17.1420000000 
H 13.1840000000 4.5610000000 11.0340000000 
H 13.7480000000 6.0010000000 11.4360000000 
H 15.4020000000 10.7170000000 15.3610000000 
H 13.6790000000 10.7460000000 14.9540000000 
H 14.2190000000 8.2370000000 11.3090000000 
H 14.9780000000 7.6650000000 10.0780000000 
H 10.0190000000 11.0440000000 11.4430000000 
H 10.1250000000 9.6180000000 12.1110000000 
H 14.9210000000 7.8860000000 20.1550000000 
H 13.4370000000 8.3510000000 20.7070000000 
H 13.8960000000 9.5460000000 18.4490000000 
H 14.0170000000 9.7060000000 16.8340000000 
H 12.5090000000 7.3910000000 15.2190000000 
H 12.3480000000 8.0020000000 16.7240000000 
H 8.4590000000 11.1370000000 13.4590000000 
H 7.2650000000 11.2550000000 14.5420000000 
H 13.2320000000 13.2600000000 18.0470000000 
H 13.8420000000 12.8370000000 16.6190000000 
H 10.9210000000 7.4480000000 12.6620000000 
H 11.0620000000 7.3880000000 11.1180000000 
H 14.1810000000 7.4400000000 13.6700000000 
H 13.3320000000 5.9580000000 13.4400000000 
H 11.3890000000 11.9260000000 19.2640000000 
H 10.5850000000 11.8370000000 20.7100000000 
H 10.7960000000 8.9110000000 16.3730000000 
H 9.0810000000 8.8960000000 16.3180000000 
H 8.7150000000 13.3850000000 14.3400000000 
H 8.2260000000 14.6380000000 15.0750000000 
O 10.2570000000 9.3020000000 19.7050000000 
O 11.5610000000 13.3810000000 14.7420000000 
O 12.3370000000 11.0580000000 13.7200000000 
O 10.2240000000 6.5200000000 14.1880000000 
O 11.9710000000 7.5610000000 20.9490000000 
O 14.0190000000 11.7920000000 19.3890000000 
O 13.5920000000 9.2610000000 12.4230000000 
O 10.9570000000 11.7630000000 17.6820000000 
O 13.0630000000 5.2590000000 11.8030000000 
O 14.4150000000 10.6790000000 15.6780000000 
O 14.4550000000 7.3930000000 10.8620000000 
O 9.9510000000 10.5940000000 12.3200000000 
O 14.3740000000 8.6440000000 20.4490000000 
O 13.6820000000 9.0470000000 17.5920000000 
O 11.8240000000 7.8980000000 15.8160000000 
O 7.9320000000 11.8180000000 14.0110000000 
O 13.0990000000 13.4190000000 16.9900000000 
O 11.1950000000 8.0620000000 11.8260000000 
O 13.7230000000 6.6330000000 14.0500000000 
O 11.4520000000 11.9660000000 20.2420000000 
O 9.8770000000 9.4340000000 16.5930000000 
O 9.0490000000 14.2490000000 14.6900000000 

